(C) 2022 by FIZ Karlsruhe - Leibniz Institute for Information Infrastructure.  All rights reserved.
data_252110-ICSD
_database_code_ICSD 252110
_audit_creation_date 2016-08-01
_chemical_name_common
'Tris(2-dimethylamino-ethyl)amine lithium tetrahydridoalumninate'
_chemical_formula_structural '(C12 H30 N4) Li (Al H4)'
_chemical_formula_sum 'C12 H34 Al1 Li1 N4'
_exptl_crystal_density_diffrn 0.95
_diffrn_ambient_temperature 123.
_citation_title

;
Tetraamine Me6TREN induced monomerization of alkali metal borohydrides and
aluminohydrides
;
loop_
_citation_id
_citation_journal_full
_citation_year
_citation_journal_volume
_citation_page_first
_citation_page_last
_citation_journal_id_ASTM
primary Polyhedron 2016 103 94 99 PLYHDE
loop_
_citation_author_citation_id
_citation_author_name
primary 'Kennedy, Alan R.'
primary 'McLellan, Ross'
primary 'McNeil, Greg J.'
primary 'Mulvey, Robert E.'
primary 'Robertson, Stuart D.'
_cell_length_a 10.2029(5)
_cell_length_b 10.2029(5)
_cell_length_c 10.4028(7)
_cell_angle_alpha 90.
_cell_angle_beta 90.
_cell_angle_gamma 120.
_cell_volume 937.83
_cell_formula_units_Z 2
_space_group_name_H-M_alt 'P 63'
_space_group_IT_number 173
loop_
_space_group_symop_id
_space_group_symop_operation_xyz
1 'x-y, x, z+1/2'
2 'y, -x+y, z+1/2'
3 '-x, -y, z+1/2'
4 '-x+y, -x, z'
5 '-y, x-y, z'
6 'x, y, z'
loop_
_atom_type_symbol
_atom_type_oxidation_number
Li1+ 1
Al3+ 3
N3- -3
C1- -1
H1+ 1
C1- -1
H1+ 1
C2- -2
H1+ 1
C2- -2
H1+ 1
H1- -1
loop_
_atom_site_label
_atom_site_type_symbol
_atom_site_symmetry_multiplicity
_atom_site_Wyckoff_symbol
_atom_site_fract_x
_atom_site_fract_y
_atom_site_fract_z
_atom_site_U_iso_or_equiv
_atom_site_occupancy
Li1 Li1+ 2 b 0.6667 0.3333 0.5001(5) 0.0244(12) 1
Al1 Al3+ 2 b 0.6667 0.3333 0.17170(9) 0.0251(3) 1
N1 N3- 2 b 0.6667 0.3333 0.7027(2) 0.0200(6) 1
N2 N3- 6 c 0.77843(15) 0.58095(15) 0.52345(18) 0.0243(4) 1
C1 C1- 6 c 0.7016(2) 0.4852(2) 0.7455(2) 0.0263(4) 1
H1 H1+ 6 c 0.606(2) 0.4840(19) 0.7371(18) 0.017(4) 1
H2 H1+ 6 c 0.731(2) 0.4981(19) 0.833(3) 0.022(5) 1
C2 C1- 6 c 0.82110(19) 0.6077(2) 0.6595(2) 0.0279(4) 1
H3 H1+ 6 c 0.919(2) 0.6113(17) 0.6667(19) 0.019(4) 1
H4 H1+ 6 c 0.838(2) 0.708(2) 0.685(3) 0.038(6) 1
C3 C2- 6 c 0.9097(2) 0.6770(2) 0.4426(3) 0.0345(5) 1
H5 H1+ 6 c 0.945(2) 0.786(2) 0.458(2) 0.033(5) 1
H6 H1+ 6 c 0.995(2) 0.660(2) 0.462(2) 0.040(6) 1
H7 H1+ 6 c 0.877(3) 0.654(2) 0.359(3) 0.039(6) 1
C4 C2- 6 c 0.6581(2) 0.6155(2) 0.4929(3) 0.0355(5) 1
H8 H1+ 6 c 0.696(2) 0.723(3) 0.509(2) 0.034(6) 1
H9 H1+ 6 c 0.566(2) 0.552(2) 0.551(2) 0.045(6) 1
H10 H1+ 6 c 0.624(3) 0.585(3) 0.400(3) 0.056(8) 1
H11 H1- 2 b 0.6667 0.3333 0.312(6) 0.079(15) 1
H12 H1- 6 c 0.688(3) 0.488(3) 0.129(3) 0.069(9) 1
loop_
_atom_site_aniso_label
_atom_site_aniso_type_symbol
_atom_site_aniso_U_11
_atom_site_aniso_U_22
_atom_site_aniso_U_33
_atom_site_aniso_U_12
_atom_site_aniso_U_13
_atom_site_aniso_U_23
Li1 Li1+ 0.0264(16) 0.0264(16) 0.021(3) 0.0132(8) 0. 0.
Al1 Al3+ 0.0254(3) 0.0254(3) 0.0243(6) 0.01271(15) 0. 0.
N1 N3- 0.0220(7) 0.0220(7) 0.0160(17) 0.0110(4) 0. 0.
N2 N3- 0.0200(7) 0.0240(7) 0.0298(9) 0.0117(6) 0.0037(7) 0.0065(7)
C1 C1- 0.0293(10) 0.0268(10) 0.0236(11) 0.0145(8) 0.0011(9) -0.0055(9)
C2 C1- 0.0242(8) 0.0212(8) 0.0367(12) 0.0102(7) 0.0014(10) -0.0044(10)
C3 C2- 0.0287(10) 0.0321(10) 0.0389(14) 0.0124(8) 0.0054(12) 0.0098(11)
C4 C2- 0.0292(11) 0.0327(11) 0.0492(15) 0.0191(9) 0.0045(10) 0.0114(11)
#End of TTdata_252110-ICSD
#
