(C) 2022 by FIZ Karlsruhe - Leibniz Institute for Information Infrastructure.  All rights reserved.
data_238328-ICSD
_database_code_ICSD 238328
_audit_creation_date 2015-08-01
_chemical_name_common 'Bis(dichloro aluminium diethylamide)'
_chemical_formula_structural '(Cl2 Al N (C2 H5)2)2'
_chemical_formula_sum 'C8 H20 Al2 Cl4 N2'
_exptl_crystal_density_diffrn 1.41
_diffrn_ambient_temperature 132.
_citation_title

;
New molecular aluminum chloride amides [Cl2 Al N Et2]2 and [H Cl Al N Et2]2
and their boranate analogues [(B H4)2 Al N Et2]2 and [H (B H4) Al N Et2]2
;
loop_
_citation_id
_citation_journal_full
_citation_year
_citation_journal_volume
_citation_page_first
_citation_page_last
_citation_journal_id_ASTM
primary 'Zeitschrift fuer Anorganische und Allgemeine Chemie' 2015 641 394 399
ZAACAB
loop_
_citation_author_citation_id
_citation_author_name
primary 'Walgenbach, Andreas'
primary 'Veith, Michael'
primary 'Huch, Volker'
primary 'Kohlmann, Holger'
_cell_length_a 13.0763(8)
_cell_length_b 10.5499(8)
_cell_length_c 11.6434(8)
_cell_angle_alpha 90.
_cell_angle_beta 90.
_cell_angle_gamma 90.
_cell_volume 1606.24
_cell_formula_units_Z 4
_space_group_name_H-M_alt 'P n m a'
_space_group_IT_number 62
loop_
_space_group_symop_id
_space_group_symop_operation_xyz
1 'x+1/2, y, -z+1/2'
2 'x, -y+1/2, z'
3 '-x+1/2, y+1/2, z+1/2'
4 '-x, -y, -z'
5 '-x+1/2, -y, z+1/2'
6 '-x, y+1/2, -z'
7 'x+1/2, -y+1/2, -z+1/2'
8 'x, y, z'
loop_
_atom_type_symbol
_atom_type_oxidation_number
Al3+ 3
Cl1- -1
N3- -3
C3+ 3
H1- -1
loop_
_atom_site_label
_atom_site_type_symbol
_atom_site_symmetry_multiplicity
_atom_site_Wyckoff_symbol
_atom_site_fract_x
_atom_site_fract_y
_atom_site_fract_z
_atom_site_U_iso_or_equiv
_atom_site_occupancy
Al1 Al3+ 4 c 0.85208(2) 0.75 0.82112(3) 0.01555(6) 1
Al2 Al3+ 4 c 0.73829(2) 0.75 1.01528(3) 0.01450(6) 1
Cl1 Cl1- 4 c 0.83726(2) 0.75 1.15918(2) 0.02312(6) 1
Cl2 Cl1- 4 c 0.583015(19) 0.75 1.06118(3) 0.02706(7) 1
Cl3 Cl1- 4 c 1.009555(19) 0.75 0.86491(3) 0.02617(6) 1
Cl4 Cl1- 4 c 0.82418(3) 0.75 0.64310(2) 0.03031(7) 1
N1 N3- 8 d 0.77966(4) 0.62070(6) 0.90664(5) 0.01433(10) 1
C1 C3+ 8 d 0.69038(6) 0.56887(7) 0.83817(7) 0.01867(12) 1
C2 C3+ 8 d 0.62819(6) 0.46844(8) 0.89985(8) 0.02553(16) 1
C3 C3+ 8 d 0.84607(5) 0.51507(7) 0.95123(7) 0.01951(13) 1
C4 C3+ 8 d 0.88998(7) 0.43268(9) 0.85654(9) 0.02886(17) 1
H1 H1- 8 d 0.6472(8) 0.6390(11) 0.8222(10) 0.024(3) 1
H2 H1- 8 d 0.7162(9) 0.5340(11) 0.7656(9) 0.027(3) 1
H3 H1- 8 d 0.5680(9) 0.4510(12) 0.8559(10) 0.032(3) 1
H4 H1- 8 d 0.6655(8) 0.3920(13) 0.9076(10) 0.031(3) 1
H5 H1- 8 d 0.6068(9) 0.4993(13) 0.9753(11) 0.034(3) 1
H6 H1- 8 d 0.8059(8) 0.4653(10) 1.0024(8) 0.015(2) 1
H7 H1- 8 d 0.9001(7) 0.5540(10) 0.9938(8) 0.018(2) 1
H8 H1- 8 d 0.8390(9) 0.3858(13) 0.8166(11) 0.039(3) 1
H9 H1- 8 d 0.9333(10) 0.3712(13) 0.8882(11) 0.043(3) 1
H10 H1- 8 d 0.9305(11) 0.4824(14) 0.7994(12) 0.050(4) 1
loop_
_atom_site_aniso_label
_atom_site_aniso_type_symbol
_atom_site_aniso_U_11
_atom_site_aniso_U_22
_atom_site_aniso_U_33
_atom_site_aniso_U_12
_atom_site_aniso_U_13
_atom_site_aniso_U_23
Al1 Al3+ 0.01682(12) 0.01540(13) 0.01442(14) 0. 0.00382(10) 0.
Al2 Al3+ 0.01453(12) 0.01552(14) 0.01345(13) 0. 0.00200(10) 0.
Cl1 Cl1- 0.02819(12) 0.02642(13) 0.01476(11) 0. -0.00397(9) 0.
Cl2 Cl1- 0.01746(10) 0.02810(14) 0.03562(16) 0. 0.01056(10) 0.
Cl3 Cl1- 0.01484(9) 0.02854(13) 0.03512(15) 0. 0.00567(9) 0.
Cl4 Cl1- 0.04786(17) 0.02954(14) 0.01354(12) 0. 0.00469(11) 0.
N1 N3- 0.0151(2) 0.0128(2) 0.0151(2) -0.00030(18) -0.00065(18) 0.00018(18)
C1 C3+ 0.0198(3) 0.0173(3) 0.0189(3) -0.0031(2) -0.0041(2) 0.0000(2)
C2 C3+ 0.0253(3) 0.0231(4) 0.0282(4) -0.0095(3) -0.0014(3) 0.0006(3)
C3 C3+ 0.0217(3) 0.0146(3) 0.0222(3) 0.0024(2) -0.0033(3) 0.0009(2)
C4 C3+ 0.0311(4) 0.0196(4) 0.0359(5) 0.0081(3) -0.0019(3) -0.0061(3)
#End of TTdata_238328-ICSD
#
