(C) 2022 by FIZ Karlsruhe - Leibniz Institute for Information Infrastructure.  All rights reserved.
data_265069-ICSD
_database_code_ICSD 265069
_audit_creation_date 2019-02-01
_audit_update_record 2021-08-01
_chemical_name_common 'Neodymium tris(borohydride) dimethyl sulfide'
_chemical_formula_structural 'Nd (B H4)3 S (C H3)2'
_chemical_formula_sum 'C2 H18 B3 Nd1 S1'
_chemical_name_structure_type Y(BH4)3S(CH3)2
_exptl_crystal_density_diffrn 1.59
_citation_title 'From metal hydrides to metal borohydrides'
loop_
_citation_id
_citation_journal_full
_citation_year
_citation_journal_volume
_citation_page_first
_citation_page_last
_citation_journal_id_ASTM
primary 'Inorganic Chemistry' 2018 57 10768 10780 INOCAJ
loop_
_citation_author_citation_id
_citation_author_name
primary 'Richter, Bo'
primary 'Grinderslev, Jakob B.'
primary 'Moeller, Kasper T.'
primary 'Paskevicius, Mark'
primary 'Jensen, Torben R.'
_cell_length_a 5.675(2)
_cell_length_b 22.995(9)
_cell_length_c 8.211(3)
_cell_angle_alpha 90.
_cell_angle_beta 101.42(2)
_cell_angle_gamma 90.
_cell_volume 1050.29
_cell_formula_units_Z 4
_space_group_name_H-M_alt 'P 1 21/c 1'
_space_group_IT_number 14
loop_
_space_group_symop_id
_space_group_symop_operation_xyz
1 'x, -y+1/2, z+1/2'
2 '-x, -y, -z'
3 '-x, y+1/2, -z+1/2'
4 'x, y, z'
loop_
_atom_type_symbol
_atom_type_oxidation_number
Nd3+ 3
B3+ 3
H1- -1
B3+ 3
H1- -1
B3+ 3
H1- -1
S2- -2
C4+ 4
H1- -1
loop_
_atom_site_label
_atom_site_type_symbol
_atom_site_symmetry_multiplicity
_atom_site_Wyckoff_symbol
_atom_site_fract_x
_atom_site_fract_y
_atom_site_fract_z
_atom_site_U_iso_or_equiv
_atom_site_occupancy
Nd1 Nd3+ 4 e 0.7035(17) 0.3352(5) 0.1186(12) 0.0132 1.
B1 B3+ 4 e 0.166 0.1643 0.563 0.031 1.
H1 H1- 4 e 0.306 0.1691 0.4761 0.031 1.
H2 H1- 4 e 0.226 0.1271 0.6584 0.031 1.
H3 H1- 4 e 0.152 0.2084 0.6326 0.031 1.
H4 H1- 4 e 0.978 0.1527 0.4848 0.031 1.
B2 B3+ 4 e 0.798 0.0794 0.8103 0.031 1.
H5 H1- 4 e 0.879 0.0322 0.8243 0.031 1.
H6 H1- 4 e 0.954 0.1135 0.8228 0.031 1.
H7 H1- 4 e 0.675 0.0841 0.6809 0.031 1.
H8 H1- 4 e 0.684 0.0876 0.913 0.031 1.
B3 B3+ 4 e 0.325 0.7573 0.1258 0.031 1.
H9 H1- 4 e 0.201 0.7712 0.2179 0.031 1.
H10 H1- 4 e 0.386 0.7088 0.1513 0.031 1.
H11 H1- 4 e 0.219 0.7616 0.9909 0.031 1.
H12 H1- 4 e 0.494 0.7877 0.1432 0.031 1.
S1 S2- 4 e 0.547(6) 0.0796(13) 0.343(3) 0.0427 1.
C1 C4+ 4 e 0.796(6) 0.0342(13) 0.288(3) 0.082 1.
C2 C4+ 4 e 0.430(6) 0.1136(13) 0.156(3) 0.082 1.
H13 H1- 4 e 0.897(6) 0.0116(13) 0.400(3) 0.082 1.
H14 H1- 4 e 0.925(6) 0.0617(13) 0.233(3) 0.082 1.
H15 H1- 4 e 0.715(6) 1.0003(13) 0.197(3) 0.082 1.
H16 H1- 4 e 0.278(6) 0.1430(13) 0.172(3) 0.082 1.
H17 H1- 4 e 0.359(6) 0.0783(13) 0.066(3) 0.082 1.
H18 H1- 4 e 0.567(6) 0.1399(13) 0.106(3) 0.082 1.
#End of TTdata_265069-ICSD
#
