(C) 2022 by FIZ Karlsruhe - Leibniz Institute for Information Infrastructure.  All rights reserved.
data_161193-ICSD
_database_code_ICSD 161193
_audit_creation_date 2009-02-01
_chemical_name_common
'Aquagadolinium hemioxalate (hydrogenphosphate(III)) hydrate'
_chemical_formula_structural '(Gd (H2 O) (C2 O4)0.5 (H P O3)) (H2 O)'
_chemical_formula_sum 'C1 H5 Gd1 O7 P1'
_chemical_name_structure_type Yb2C2O4(HPO3)2(H2O)4
_exptl_crystal_density_diffrn 3.24
_diffrn_ambient_temperature 296.
_citation_title

;
Luminescent lanthanide oxalatophosphites with a 3D framework structure: (Ln
(H2 O) (C2 O4)0.5 (H P O3)) * (H2 O) (Ln= Pr, Nd and Sm - Lu)
;
loop_
_citation_id
_citation_journal_full
_citation_year
_citation_journal_volume
_citation_page_first
_citation_page_last
_citation_journal_id_ASTM
primary 'Chemistry of Materials' 2008 20 2857 2859 CMATEX
loop_
_citation_author_citation_id
_citation_author_name
primary 'Wang Chihmin'
primary 'Wu Yiying'
primary 'Chang Yuwei'
primary 'Lii Kwanghwa'
_cell_length_a 6.5434(2)
_cell_length_b 6.9311(2)
_cell_length_c 7.7465(3)
_cell_angle_alpha 111.4870(10)
_cell_angle_beta 95.645(2)
_cell_angle_gamma 90.833(2)
_cell_volume 324.84
_cell_formula_units_Z 2
_space_group_name_H-M_alt 'P -1'
_space_group_IT_number 2
loop_
_space_group_symop_id
_space_group_symop_operation_xyz
1 '-x, -y, -z'
2 'x, y, z'
loop_
_atom_type_symbol
_atom_type_oxidation_number
Gd3+ 3
P3+ 3
H1+ 1
O2- -2
H1+ 1
O2- -2
H1+ 1
C3+ 3
loop_
_atom_site_label
_atom_site_type_symbol
_atom_site_symmetry_multiplicity
_atom_site_Wyckoff_symbol
_atom_site_fract_x
_atom_site_fract_y
_atom_site_fract_z
_atom_site_U_iso_or_equiv
_atom_site_occupancy
Gd1 Gd3+ 2 i 1.12603(2) 0.22052(3) 0.93234(2) 0.01064(7) 1
P1 P3+ 2 i 0.67160(15) 0.25208(16) 1.02006(14) 0.01251(19) 1
H1 H1+ 2 i 0.6378 0.2796 1.2022 0.013 1
O1 O2- 2 i 0.8006(4) 0.0585(4) 0.9643(4) 0.0149(5) 1
O2 O2- 2 i 0.4720(4) 0.2240(5) 0.8952(4) 0.0197(6) 1
O3 O2- 2 i 0.8175(4) 0.4279(4) 1.0242(4) 0.0165(6) 1
O4 O2- 2 i 0.9482(5) 0.2446(5) 0.6517(4) 0.0257(7) 1
O5 O2- 2 i 1.1525(5) -0.0834(5) 0.6526(4) 0.0235(7) 1
O6 O2- 2 i 1.2031(6) 0.3764(5) 1.2612(4) 0.0295(8) 1
H2 H1+ 2 i 1.273 0.329 1.3363 0.05 1
H3 H1+ 2 i 1.1733 0.5126 1.3428 0.05 1
O7 O2- 2 i 1.4218(6) 0.2102(7) 1.4913(6) 0.0491(11) 1
H4 H1+ 2 i 1.5037 0.2767 1.6224 0.05 1
H5 H1+ 2 i 1.4887 0.0841 1.3984 0.05 1
C1 C3+ 2 i 1.0591(6) -0.0942(6) 0.5009(6) 0.0164(8) 1
loop_
_atom_site_aniso_label
_atom_site_aniso_type_symbol
_atom_site_aniso_U_11
_atom_site_aniso_U_22
_atom_site_aniso_U_33
_atom_site_aniso_U_12
_atom_site_aniso_U_13
_atom_site_aniso_U_23
Gd1 Gd3+ 0.00915(11) 0.00903(11) 0.01362(11) 0.00098(7) 0.00088(7) 0.00413(7)
P1 P3+ 0.0096(4) 0.0125(5) 0.0168(5) 0.0016(3) 0.0028(4) 0.0066(4)
O1 O2- 0.0138(13) 0.0115(14) 0.0210(14) 0.0036(10) 0.0022(11) 0.0079(11)
O2 O2- 0.0121(14) 0.0171(15) 0.0284(16) -0.0004(11) 0.0021(12) 0.0067(12)
O3 O2- 0.0128(13) 0.0120(14) 0.0254(15) 0.0011(10) 0.0029(11) 0.0078(11)
O4 O2- 0.0380(19) 0.0172(16) 0.0160(15) 0.0106(13) -0.0036(13) 0.0005(12)
O5 O2- 0.0341(18) 0.0183(16) 0.0156(14) 0.0120(13) -0.0009(12) 0.0037(12)
O6 O2- 0.050(2) 0.0185(17) 0.0166(15) 0.0135(14) -0.0027(14) 0.0040(12)
O7 O2- 0.047(2) 0.066(3) 0.048(2) 0.029(2) 0.0117(19) 0.035(2)
C1 C3+ 0.0171(19) 0.015(2) 0.0167(19) 0.0018(15) -0.0011(15) 0.0060(15)
#End of TTdata_161193-ICSD
#
