(C) 2022 by FIZ Karlsruhe - Leibniz Institute for Information Infrastructure.  All rights reserved.
data_256909-ICSD
_database_code_ICSD 256909
_audit_creation_date 2019-02-01
_chemical_name_common
'Hexabarium henicosaoxo-dihydroxo-dodecaborate bis(carbonate)'
_chemical_formula_structural 'Ba6 (B12 O21 (O H)2) (C O3)2'
_chemical_formula_sum 'C2 H2 B12 Ba6 O29'
_exptl_crystal_density_diffrn 4.17
_diffrn_ambient_temperature 296.
_citation_title

;
High-temperature, high-pressure hydrothermal synthesis of Ba3[B6O10(OH)2](CO3)
and Ba6[B12O21(OH)2](CO3)2, two barium borate carbonates with 2D layer and 3D
framework structures
;
loop_
_citation_id
_citation_journal_full
_citation_year
_citation_journal_volume
_citation_page_first
_citation_page_last
_citation_journal_id_ASTM
primary 'Inorganic Chemistry' 2018 57 11492 11497 INOCAJ
loop_
_citation_author_citation_id
_citation_author_name
primary 'Liao, Chun-Jui'
primary 'Wen, Yuh-Sheng'
primary 'Lii, Kwang-Hwa'
_cell_length_a 6.5485(4)
_cell_length_b 19.3608(12)
_cell_length_c 18.1199(11)
_cell_angle_alpha 90.
_cell_angle_beta 90.893(2)
_cell_angle_gamma 90.
_cell_volume 2297.03
_cell_formula_units_Z 4
_space_group_name_H-M_alt 'P 1 21/c 1'
_space_group_IT_number 14
loop_
_space_group_symop_id
_space_group_symop_operation_xyz
1 'x, -y+1/2, z+1/2'
2 '-x, -y, -z'
3 '-x, y+1/2, -z+1/2'
4 'x, y, z'
loop_
_atom_type_symbol
_atom_type_oxidation_number
Ba2+ 2
B3+ 3
O2- -2
C4+ 4
H1+ 1
loop_
_atom_site_label
_atom_site_type_symbol
_atom_site_symmetry_multiplicity
_atom_site_Wyckoff_symbol
_atom_site_fract_x
_atom_site_fract_y
_atom_site_fract_z
_atom_site_U_iso_or_equiv
_atom_site_occupancy
Ba1 Ba2+ 4 e 0.46962(3) 0.575242(12) 0.114459(13) 0.00863(6) 1
Ba2 Ba2+ 4 e 0.47386(4) 0.629946(12) 0.576119(13) 0.00997(6) 1
Ba3 Ba2+ 4 e 0.40601(4) 0.666528(12) 0.344267(13) 0.00878(6) 1
Ba4 Ba2+ 4 e 0.37181(3) 0.357268(12) 0.185492(13) 0.00810(6) 1
Ba5 Ba2+ 4 e 0.95559(4) 0.492719(12) 0.291281(13) 0.01032(6) 1
Ba6 Ba2+ 4 e 0.94713(4) 0.716305(12) 0.013264(13) 0.01042(6) 1
B1 B3+ 4 e 0.9711(7) 0.8224(2) 0.1661(2) 0.0074(8) 1
B2 B3+ 4 e 1.1233(6) 0.8131(2) 0.2970(2) 0.0065(8) 1
B3 B3+ 4 e 0.2980(7) 0.7566(2) 0.1909(2) 0.0072(8) 1
B4 B3+ 4 e 0.6880(6) 0.7310(2) 0.1873(2) 0.0056(8) 1
B5 B3+ 4 e 0.8972(7) 0.7033(2) 0.3066(2) 0.0070(8) 1
B6 B3+ 4 e 1.0505(6) 1.1396(2) 0.3132(2) 0.0051(8) 1
B7 B3+ 4 e 1.0317(7) 1.0409(2) 0.4106(2) 0.0070(8) 1
B8 B3+ 4 e 1.0968(6) 0.9166(2) 0.3801(2) 0.0065(8) 1
B9 B3+ 4 e 0.8009(6) 0.9461(2) 0.4636(2) 0.0072(8) 1
B10 B3+ 4 e 0.9288(7) 0.8751(2) -0.0770(2) 0.0063(8) 1
B11 B3+ 4 e 0.9674(7) 0.9170(2) 0.0528(2) 0.0086(9) 1
B12 B3+ 4 e 1.2076(7) 0.9635(2) -0.0466(2) 0.0063(8) 1
O1 O2- 4 e 1.0279(4) 0.87940(14) 0.11891(14) 0.0098(6) 1
O2 O2- 4 e 0.9937(4) 0.84672(13) 0.24250(14) 0.0077(5) 1
O3 O2- 4 e 0.7650(4) 0.79517(13) 0.15193(14) 0.0079(5) 1
O4 O2- 4 e 1.1285(4) 0.76567(13) 0.14883(14) 0.0076(5) 1
O5 O2- 4 e 1.0229(4) 0.75804(13) 0.33854(14) 0.0077(5) 1
O6 O2- 4 e 1.2128(4) 0.86710(13) 0.34610(15) 0.0093(6) 1
O7 O2- 4 e 0.3092(4) 0.78247(13) 0.26178(14) 0.0079(5) 1
O8 O2- 4 e 0.4671(4) 0.72453(14) 0.16380(14) 0.0093(6) 1
O9 O2- 4 e 0.7139(4) 0.72861(13) 0.26736(14) 0.0057(5) 1
O10 O2- 4 e 0.7859(4) 0.67104(13) 0.15336(14) 0.0077(5) 1
O11 O2- 4 e 0.8223(4) 0.83773(13) -0.12881(14) 0.0076(5) 1
O12 O2- 4 e 0.9827(4) 1.15587(13) 0.24279(14) 0.0072(5) 1
O13 O2- 4 e 0.9515(4) 1.08896(14) 0.35044(15) 0.0101(6) 1
O14 O2- 4 e 0.8534(4) 1.01639(13) 0.44729(14) 0.0061(5) 1
O15 O2- 4 e 0.8270(4) 0.92327(13) 0.53981(14) 0.0067(5) 1
O16 O2- 4 e 1.1445(4) 0.98479(13) 0.37069(14) 0.0092(6) 1
O17 O2- 4 e 0.9266(4) 0.89665(13) 0.41711(14) 0.0067(5) 1
O18 O2- 4 e 0.5840(4) 0.93918(13) 0.43974(14) 0.0086(6) 1
O19 O2- 4 e 0.8771(4) 0.86869(13) -0.00432(14) 0.0081(5) 1
O20 O2- 4 e 1.0870(4) 0.91726(13) -0.09883(14) 0.0081(5) 1
O21 O2- 4 e 1.1519(4) 0.95198(13) 0.02812(14) 0.0067(5) 1
O22 O2- 4 e 0.8038(4) 0.96613(13) 0.07420(14) 0.0078(5) 1
O23 O2- 4 e 1.4264(4) 0.93894(13) -0.05503(14) 0.0090(6) 1
O24 O2- 4 e 1.3195(4) 0.49024(15) 0.23052(15) 0.0136(6) 1
O25 O2- 4 e 1.5784(4) 0.55546(14) 0.27012(16) 0.0148(6) 1
O26 O2- 4 e 1.5638(4) 0.44391(14) 0.30144(16) 0.0146(6) 1
O27 O2- 4 e 0.3469(4) 0.83405(14) 0.50679(15) 0.0136(6) 1
O28 O2- 4 e 0.3070(4) 0.72220(14) 0.48096(15) 0.0118(6) 1
O29 O2- 4 e 0.5756(4) 0.77804(15) 0.43855(16) 0.0160(6) 1
C1 C4+ 4 e 1.4860(6) 0.4969(2) 0.2690(2) 0.0105(8) 1
C2 C4+ 4 e 0.4102(6) 0.7791(2) 0.4764(2) 0.0112(8) 1
H1 H1+ 4 e 0.492 0.9062 0.4614 0.05 1
H2 H1+ 4 e 0.524 0.9646 0.9185 0.05 1
loop_
_atom_site_aniso_label
_atom_site_aniso_type_symbol
_atom_site_aniso_U_11
_atom_site_aniso_U_22
_atom_site_aniso_U_33
_atom_site_aniso_U_12
_atom_site_aniso_U_13
_atom_site_aniso_U_23
Ba1 Ba2+ 0.00696(11) 0.00963(11) 0.00928(11) -0.00158(9) -0.00053(9) 0.00067(9)
Ba2 Ba2+ 0.01100(12) 0.00988(11) 0.00893(11) -0.00143(9) -0.00246(9) -0.00024(9)
Ba3 Ba2+ 0.00798(11) 0.00880(11) 0.00959(11) -0.00044(9) 0.00063(9) 0.00186(9)
Ba4 Ba2+ 0.00697(11) 0.00825(11) 0.00907(11) 0.00071(9) 0.00003(9) 0.00164(8)
Ba5 Ba2+ 0.00842(12) 0.01208(12) 0.01042(12) 0.00024(9) -0.00071(9) -0.00003(9)
Ba6 Ba2+ 0.00908(12) 0.00966(12) 0.01251(12) -0.00111(9) -0.00026(9) -0.00135(9)
B1 B3+ 0.005(2) 0.007(2) 0.010(2) -0.0011(16) -0.0021(16) 0.0012(16)
B2 B3+ 0.005(2) 0.006(2) 0.008(2) 0.0015(16) -0.0009(16) -0.0020(16)
B3 B3+ 0.008(2) 0.0038(19) 0.010(2) -0.0030(17) -0.0001(17) 0.0015(16)
B4 B3+ 0.004(2) 0.0056(19) 0.007(2) 0.0009(16) 0.0002(16) -0.0017(16)
B5 B3+ 0.008(2) 0.005(2) 0.007(2) 0.0005(17) 0.0000(16) 0.0001(16)
B6 B3+ 0.005(2) 0.0035(19) 0.007(2) 0.0028(16) -0.0002(16) -0.0025(15)
B7 B3+ 0.007(2) 0.006(2) 0.007(2) -0.0010(17) -0.0022(16) 0.0017(16)
B8 B3+ 0.0038(19) 0.011(2) 0.0047(19) 0.0006(17) -0.0029(16) 0.0004(16)
B9 B3+ 0.004(2) 0.007(2) 0.010(2) 0.0002(16) -0.0006(16) 0.0002(16)
B10 B3+ 0.009(2) 0.0045(19) 0.0056(19) 0.0062(17) 0.0025(16) 0.0007(15)
B11 B3+ 0.011(2) 0.006(2) 0.009(2) -0.0028(17) -0.0006(17) -0.0007(16)
B12 B3+ 0.007(2) 0.0042(19) 0.008(2) 0.0011(16) -0.0009(16) 0.0002(16)
O1 O2- 0.0118(14) 0.0110(14) 0.0065(13) -0.0024(11) -0.0043(11) 0.0054(11)
O2 O2- 0.0077(13) 0.0077(13) 0.0078(13) 0.0032(11) 0.0013(11) 0.0021(10)
O3 O2- 0.0060(13) 0.0070(13) 0.0106(14) -0.0007(11) -0.0005(11) 0.0034(11)
O4 O2- 0.0067(13) 0.0109(13) 0.0052(13) 0.0030(11) -0.0016(10) -0.0029(10)
O5 O2- 0.0063(13) 0.0080(13) 0.0088(13) -0.0037(11) -0.0008(11) 0.0010(10)
O6 O2- 0.0065(13) 0.0074(13) 0.0141(14) -0.0001(11) -0.0003(11) -0.0047(11)
O7 O2- 0.0061(13) 0.0096(14) 0.0081(13) 0.0036(11) -0.0009(11) -0.0014(10)
O8 O2- 0.0041(13) 0.0144(15) 0.0094(13) 0.0024(11) -0.0013(11) -0.0029(11)
O9 O2- 0.0064(13) 0.0055(13) 0.0051(13) -0.0009(10) -0.0004(10) 0.0006(10)
O10 O2- 0.0068(13) 0.0100(13) 0.0062(13) 0.0024(11) -0.0009(10) -0.0011(10)
O11 O2- 0.0062(13) 0.0096(13) 0.0069(13) -0.0008(11) 0.0004(10) -0.0026(11)
O12 O2- 0.0064(13) 0.0081(13) 0.0070(13) -0.0036(11) -0.0006(10) 0.0002(10)
O13 O2- 0.0079(14) 0.0116(14) 0.0108(14) -0.0038(11) -0.0023(11) 0.0045(11)
O14 O2- 0.0059(13) 0.0045(13) 0.0079(13) -0.0007(10) 0.0013(10) 0.0009(10)
O15 O2- 0.0082(13) 0.0074(13) 0.0046(13) -0.0038(11) -0.0004(10) 0.0000(10)
O16 O2- 0.0085(14) 0.0084(13) 0.0108(14) -0.0015(11) 0.0042(11) -0.0020(11)
O17 O2- 0.0082(13) 0.0046(12) 0.0074(13) -0.0007(11) 0.0013(10) -0.0003(10)
O18 O2- 0.0036(13) 0.0100(13) 0.0121(14) -0.0030(11) 0.0004(11) 0.0008(11)
O19 O2- 0.0072(13) 0.0092(14) 0.0078(13) -0.0016(11) 0.0001(11) -0.0022(11)
O20 O2- 0.0076(13) 0.0081(13) 0.0086(13) -0.0027(11) 0.0017(11) -0.0007(10)
O21 O2- 0.0056(13) 0.0092(13) 0.0051(13) -0.0021(11) 0.0003(10) -0.0007(10)
O22 O2- 0.0072(13) 0.0057(13) 0.0105(14) 0.0009(11) 0.0022(11) 0.0019(10)
O23 O2- 0.0057(13) 0.0096(13) 0.0116(14) 0.0020(11) 0.0009(11) -0.0004(11)
O24 O2- 0.0081(14) 0.0174(15) 0.0154(15) -0.0020(12) -0.0015(12) 0.0004(12)
O25 O2- 0.0158(15) 0.0104(14) 0.0181(16) -0.0015(12) 0.0009(12) -0.0027(12)
O26 O2- 0.0136(15) 0.0147(15) 0.0155(15) 0.0018(12) -0.0012(12) 0.0079(12)
O27 O2- 0.0167(15) 0.0102(14) 0.0139(15) -0.0004(12) 0.0020(12) -0.0046(12)
O28 O2- 0.0135(15) 0.0096(14) 0.0124(14) -0.0014(11) 0.0011(12) 0.0007(11)
O29 O2- 0.0112(15) 0.0195(16) 0.0174(16) -0.0005(12) 0.0044(12) -0.0005(12)
C1 C4+ 0.0096(19) 0.013(2) 0.0091(19) 0.0032(16) 0.0053(15) -0.0022(15)
C2 C4+ 0.013(2) 0.011(2) 0.0094(19) -0.0004(16) -0.0025(16) 0.0022(15)
#End of TTdata_256909-ICSD
#
