(C) 2022 by FIZ Karlsruhe - Leibniz Institute for Information Infrastructure.  All rights reserved.
data_251470-ICSD
_database_code_ICSD 251470
_audit_creation_date 2015-08-01
_chemical_name_common

;
Bis(1,2-bis(3-aminopropylamino)ethane zinc)
trifluoro-hydroxo-tetradecaoxo-heptagermanate
;
_chemical_formula_structural '(C8 H22 N4 Zn)2 Ge7 O14 (O H) F3'
_chemical_formula_sum 'C16 H45 F3 Ge7 N8 O15 Zn2'
_exptl_crystal_density_diffrn 2.3
_diffrn_ambient_temperature 296.
_citation_title

;
(C8 H22 N4 Zn)2 Ge7 O14 (OH) F3: A one-dimensional zinc germanate containing
hollow columns with an 18-membered window
;
loop_
_citation_id
_citation_journal_full
_citation_year
_citation_journal_volume
_citation_page_first
_citation_page_last
_citation_journal_id_ASTM
primary 'Inorganic Chemistry' 2012 51 9150 9152 INOCAJ
loop_
_citation_author_citation_id
_citation_author_name
primary 'Nguyen, Quang Bac'
primary 'Lii, Kwang-Hwa'
_cell_length_a 46.5858(13)
_cell_length_b 46.5858(13)
_cell_length_c 8.8708(3)
_cell_angle_alpha 90.
_cell_angle_beta 90.
_cell_angle_gamma 120.
_cell_volume 16672.49
_cell_formula_units_Z 18
_space_group_name_H-M_alt 'R -3 H'
_space_group_IT_number 148
loop_
_space_group_symop_id
_space_group_symop_operation_xyz
1 'x-y, x, -z'
2 'y, -x+y, -z'
3 '-x, -y, -z'
4 '-x+y, -x, z'
5 '-y, x-y, z'
6 'x, y, z'
7 'x-y+2/3, x+1/3, -z+1/3'
8 'y+2/3, -x+y+1/3, -z+1/3'
9 '-x+2/3, -y+1/3, -z+1/3'
10 '-x+y+2/3, -x+1/3, z+1/3'
11 '-y+2/3, x-y+1/3, z+1/3'
12 'x+2/3, y+1/3, z+1/3'
13 'x-y+1/3, x+2/3, -z+2/3'
14 'y+1/3, -x+y+2/3, -z+2/3'
15 '-x+1/3, -y+2/3, -z+2/3'
16 '-x+y+1/3, -x+2/3, z+2/3'
17 '-y+1/3, x-y+2/3, z+2/3'
18 'x+1/3, y+2/3, z+2/3'
loop_
_atom_type_symbol
_atom_type_oxidation_number
Zn2+ 2
Ge4+ 4
F1- -1
O2- -2
H1+ 1
N3- -3
H1+ 1
N3- -3
H1+ 1
N3- -3
H1+ 1
N3- -3
H1+ 1
C1- -1.25
H1+ 1
C1- -1.25
H1+ 1
C1- -1.25
H1+ 1
C1- -1.25
H1+ 1
C1- -1.25
H1+ 1
C1- -1.25
H1+ 1
C1- -1.25
H1+ 1
C1- -1.25
H1+ 1
N3- -3
H1+ 1
N3- -3
H1+ 1
N3- -3
H1+ 1
N3- -3
H1+ 1
C1- -1.25
H1+ 1
C1- -1.25
H1+ 1
C1- -1.25
H1+ 1
C1- -1.25
H1+ 1
C1- -1.25
H1+ 1
C1- -1.25
H1+ 1
C1- -1.25
H1+ 1
C1- -1.25
H1+ 1
loop_
_atom_site_label
_atom_site_type_symbol
_atom_site_symmetry_multiplicity
_atom_site_Wyckoff_symbol
_atom_site_fract_x
_atom_site_fract_y
_atom_site_fract_z
_atom_site_U_iso_or_equiv
_atom_site_occupancy
Zn1 Zn2+ 18 f 0.372576(16) 0.116515(17) -0.23240(8) 0.02099(16) 1
Zn2 Zn2+ 18 f 0.500221(18) 0.213598(17) -0.05501(8) 0.02148(16) 1
Ge1 Ge4+ 18 f 0.518130(14) 0.151294(14) -0.04549(6) 0.01183(13) 1
Ge2 Ge4+ 18 f 0.479821(15) 0.064268(15) -0.14218(7) 0.01659(14) 1
Ge3 Ge4+ 18 f 0.440647(14) 0.079393(14) 0.05773(7) 0.01534(13) 1
Ge4 Ge4+ 18 f 0.446810(14) 0.134694(14) -0.16046(6) 0.01326(13) 1
Ge5 Ge4+ 18 f 0.498871(15) 0.118880(15) 0.27132(6) 0.01440(13) 1
Ge6 Ge4+ 18 f 0.492514(14) 0.120739(15) -0.35921(6) 0.01417(13) 1
Ge7 Ge4+ 18 f 0.540614(15) 0.102583(15) 0.06516(7) 0.01646(14) 1
F1 F1- 18 f 0.54764(8) 0.19554(8) -0.0454(4) 0.0210(7) 1
F2 F1- 18 f 0.46972(9) 0.02429(8) -0.2130(4) 0.0314(9) 1
F3 F1- 18 f 0.40028(8) 0.05168(8) 0.1309(4) 0.0255(8) 1
O1 O2- 18 f 0.48463(9) 0.16341(9) -0.0787(4) 0.0141(8) 1
O2 O2- 18 f 0.51326(9) 0.15391(9) 0.1610(4) 0.0151(8) 1
O3 O2- 18 f 0.55132(9) 0.14048(9) -0.0172(4) 0.0172(8) 1
O4 O2- 18 f 0.52442(9) 0.15080(9) -0.2524(4) 0.0161(8) 1
O5 O2- 18 f 0.48449(9) 0.10495(9) -0.0445(4) 0.0144(8) 1
O6 O2- 18 f 0.48607(10) 0.08099(10) -0.3266(4) 0.0221(9) 1
O7 O2- 18 f 0.44181(10) 0.04644(9) -0.0404(5) 0.0232(9) 1
O8 O2- 18 f 0.51544(10) 0.06822(10) -0.0500(4) 0.0212(9) 1
O9 O2- 18 f 0.45698(9) 0.09076(10) 0.2419(4) 0.0209(9) 1
O10 O2- 18 f 0.42492(9) 0.10238(10) -0.0327(4) 0.0196(9) 1
O11 O2- 18 f 0.42064(9) 0.14971(9) -0.2012(4) 0.0170(8) 1
O12 O2- 18 f 0.45556(10) 0.12107(10) -0.3302(4) 0.0217(9) 1
O13 O2- 18 f 0.52221(10) 0.09903(10) 0.2416(4) 0.0203(9) 1
O14 O2- 18 f 0.50510(10) 0.13232(10) 0.4567(4) 0.0227(9) 1
O15 O2- 18 f 0.57615(10) 0.10042(11) 0.0989(5) 0.0258(10) 1
H1 H1+ 18 f 0.5825 0.0963 0.02 0.039 1
N1 N3- 18 f 0.37540(14) 0.12257(14) -0.4782(6) 0.0326(13) 1
H2 H1+ 18 f 0.3549 0.116 -0.5131 0.039 1
H3 H1+ 18 f 0.388 0.1443 -0.4991 0.039 1
N2 N3- 18 f 0.35292(12) 0.06498(12) -0.2709(6) 0.0243(12) 1
H4 H1+ 18 f 0.3317 0.057 -0.302 0.029 1
N3 N3- 18 f 0.35957(13) 0.09798(14) 0.0003(6) 0.0291(13) 1
H5 H1+ 18 f 0.379 0.1022 0.044 0.035 1
N4 N3- 18 f 0.34567(14) 0.14172(14) -0.2218(7) 0.0337(14) 1
H6 H1+ 18 f 0.3593 0.1624 -0.2561 0.04 1
H7 H1+ 18 f 0.3291 0.1319 -0.2895 0.04 1
C1 C1- 18 f 0.38898(18) 0.1044(2) -0.5632(8) 0.0398(19) 1
H8 H1+ 18 f 0.4113 0.1115 -0.5279 0.048 1
H9 H1+ 18 f 0.3903 0.1099 -0.6694 0.048 1
C2 C1- 18 f 0.3679(2) 0.0676(2) -0.5446(8) 0.045(2) 1
H10 H1+ 18 f 0.3751 0.0569 -0.6171 0.054 1
H11 H1+ 18 f 0.3452 0.0611 -0.5685 0.054 1
C3 C1- 18 f 0.36883(19) 0.05465(18) -0.3880(9) 0.0413(19) 1
H12 H1+ 18 f 0.3576 0.0306 -0.391 0.05 1
H13 H1+ 18 f 0.3917 0.0627 -0.3598 0.05 1
C4 C1- 18 f 0.35071(16) 0.04811(17) -0.1267(8) 0.0342(16) 1
H14 H1+ 18 f 0.3723 0.0512 -0.1007 0.041 1
H15 H1+ 18 f 0.3354 0.0245 -0.1373 0.041 1
C5 C1- 18 f 0.33904(16) 0.06171(16) -0.0045(8) 0.0326(16) 1
H16 H1+ 18 f 0.3161 0.0555 -0.0224 0.039 1
H17 H1+ 18 f 0.3403 0.0525 0.0916 0.039 1
C6 C1- 18 f 0.34545(19) 0.1129(2) 0.1023(8) 0.0422(19) 1
H18 H1+ 18 f 0.3631 0.1342 0.1371 0.051 1
H19 H1+ 18 f 0.336 0.0987 0.1898 0.051 1
C7 C1- 18 f 0.3188(2) 0.1177(2) 0.0273(10) 0.055(2) 1
H20 H1+ 18 f 0.3035 0.0972 -0.0236 0.066 1
H21 H1+ 18 f 0.3065 0.1215 0.1054 0.066 1
C8 C1- 18 f 0.3308(2) 0.1452(2) -0.0832(10) 0.054(2) 1
H22 H1+ 18 f 0.3122 0.1481 -0.1108 0.064 1
H23 H1+ 18 f 0.347 0.1654 -0.0333 0.064 1
N5 N3- 18 f 0.45584(13) 0.21238(13) -0.0344(6) 0.0254(12) 1
H24 H1+ 18 f 0.4586 0.2317 -0.0695 0.03 1
H25 H1+ 18 f 0.4412 0.1963 -0.0957 0.03 1
N6 N3- 18 f 0.51082(14) 0.21350(13) 0.1756(6) 0.0301(13) 1
H26 H1+ 18 f 0.516 0.1972 0.1872 0.036 1
N7 N3- 18 f 0.53671(14) 0.26628(13) -0.0375(7) 0.0341(14) 1
H27 H1+ 18 f 0.5279 0.2781 -0.0786 0.041 1
N8 N3- 18 f 0.51021(14) 0.21935(14) -0.2874(6) 0.0316(13) 1
H28 H1+ 18 f 0.4993 0.1992 -0.3303 0.038 1
H29 H1+ 18 f 0.5016 0.2313 -0.3255 0.038 1
C9 C1- 18 f 0.4407(2) 0.2069(2) 0.1153(8) 0.0416(19) 1
H30 H1+ 18 f 0.4168 0.1954 0.1043 0.05 1
H31 H1+ 18 f 0.4475 0.2282 0.162 0.05 1
C10 C1- 18 f 0.45006(19) 0.18681(18) 0.2181(7) 0.0384(18) 1
H32 H1+ 18 f 0.434 0.1776 0.299 0.046 1
H33 H1+ 18 f 0.4487 0.1684 0.1609 0.046 1
C11 C1- 18 f 0.4840(2) 0.2060(2) 0.2858(8) 0.048(2) 1
H34 H1+ 18 f 0.487 0.2266 0.3266 0.057 1
H35 H1+ 18 f 0.4858 0.1933 0.3685 0.057 1
C12 C1- 18 f 0.5416(2) 0.24495(18) 0.2079(9) 0.045(2) 1
H36 H1+ 18 f 0.5607 0.2433 0.176 0.054 1
H37 H1+ 18 f 0.5435 0.2493 0.3155 0.054 1
C13 C1- 18 f 0.5410(2) 0.27309(18) 0.1245(9) 0.048(2) 1
H38 H1+ 18 f 0.5229 0.2758 0.1624 0.057 1
H39 H1+ 18 f 0.5616 0.2936 0.1424 0.057 1
C14 C1- 18 f 0.56767(18) 0.27525(19) -0.1154(10) 0.051(2) 1
H40 H1+ 18 f 0.5767 0.262 -0.0751 0.061 1
H41 H1+ 18 f 0.5835 0.2983 -0.095 0.061 1
C15 C1- 18 f 0.5637(2) 0.2702(2) -0.2829(10) 0.053(2) 1
H42 H1+ 18 f 0.5527 0.2817 -0.3211 0.064 1
H43 H1+ 18 f 0.5856 0.2804 -0.3282 0.064 1
C16 C1- 18 f 0.54463(19) 0.2349(2) -0.3330(9) 0.045(2) 1
H44 H1+ 18 f 0.5458 0.234 -0.4419 0.054 1
H45 H1+ 18 f 0.5546 0.2228 -0.2902 0.054 1
loop_
_atom_site_aniso_label
_atom_site_aniso_type_symbol
_atom_site_aniso_U_11
_atom_site_aniso_U_22
_atom_site_aniso_U_33
_atom_site_aniso_U_12
_atom_site_aniso_U_13
_atom_site_aniso_U_23
Zn1 Zn2+ 0.0167(3) 0.0219(4) 0.0239(4) 0.0093(3) -0.0012(3) 0.0000(3)
Zn2 Zn2+ 0.0265(4) 0.0195(3) 0.0184(4) 0.0115(3) 0.0005(3) 0.0002(3)
Ge1 Ge4+ 0.0125(3) 0.0128(3) 0.0094(3) 0.0057(2) -0.0002(2) 0.0004(2)
Ge2 Ge4+ 0.0200(3) 0.0143(3) 0.0156(3) 0.0087(2) -0.0008(2) 0.0000(2)
Ge3 Ge4+ 0.0148(3) 0.0143(3) 0.0150(3) 0.0058(2) 0.0001(2) 0.0025(2)
Ge4 Ge4+ 0.0127(3) 0.0148(3) 0.0125(3) 0.0070(2) -0.0005(2) 0.0007(2)
Ge5 Ge4+ 0.0173(3) 0.0186(3) 0.0088(3) 0.0101(3) 0.0009(2) 0.0011(2)
Ge6 Ge4+ 0.0168(3) 0.0190(3) 0.0083(3) 0.0101(2) -0.0002(2) -0.0007(2)
Ge7 Ge4+ 0.0199(3) 0.0220(3) 0.0123(3) 0.0141(3) 0.0001(2) -0.0005(2)
F1 F1- 0.0191(17) 0.0168(17) 0.0200(18) 0.0037(14) -0.0016(14) 0.0011(14)
F2 F1- 0.039(2) 0.0188(18) 0.036(2) 0.0146(17) -0.0033(18) -0.0062(16)
F3 F1- 0.0189(17) 0.0219(18) 0.030(2) 0.0057(15) 0.0056(15) 0.0097(15)
O1 O2- 0.0130(18) 0.0152(19) 0.017(2) 0.0088(16) -0.0031(16) -0.0008(16)
O2 O2- 0.022(2) 0.018(2) 0.0092(19) 0.0125(17) 0.0000(16) 0.0018(16)
O3 O2- 0.0137(19) 0.024(2) 0.014(2) 0.0092(17) 0.0031(16) 0.0013(17)
O4 O2- 0.0145(19) 0.021(2) 0.0078(19) 0.0056(17) 0.0014(15) 0.0012(16)
O5 O2- 0.0144(19) 0.0146(19) 0.014(2) 0.0073(16) 0.0017(16) 0.0014(16)
O6 O2- 0.035(2) 0.024(2) 0.011(2) 0.017(2) 0.0010(18) -0.0021(17)
O7 O2- 0.025(2) 0.015(2) 0.027(2) 0.0070(18) 0.0012(19) -0.0017(18)
O8 O2- 0.026(2) 0.023(2) 0.021(2) 0.0169(19) -0.0056(18) -0.0056(18)
O9 O2- 0.016(2) 0.028(2) 0.013(2) 0.0062(18) 0.0017(16) 0.0025(17)
O10 O2- 0.0144(19) 0.023(2) 0.024(2) 0.0107(17) 0.0034(17) 0.0087(18)
O11 O2- 0.0129(19) 0.0160(19) 0.022(2) 0.0073(16) 0.0001(16) 0.0019(17)
O12 O2- 0.021(2) 0.031(2) 0.017(2) 0.0156(19) -0.0052(17) -0.0097(18)
O13 O2- 0.027(2) 0.029(2) 0.015(2) 0.021(2) 0.0015(17) 0.0046(17)
O14 O2- 0.031(2) 0.029(2) 0.008(2) 0.015(2) -0.0017(18) -0.0033(17)
O15 O2- 0.030(2) 0.045(3) 0.017(2) 0.029(2) -0.0060(19) -0.006(2)
N1 N3- 0.030(3) 0.040(3) 0.022(3) 0.013(3) -0.009(2) -0.001(3)
N2 N3- 0.014(2) 0.022(3) 0.031(3) 0.005(2) -0.005(2) 0.000(2)
N3 N3- 0.021(3) 0.035(3) 0.027(3) 0.012(2) -0.001(2) 0.001(3)
N4 N3- 0.032(3) 0.035(3) 0.039(4) 0.021(3) -0.005(3) -0.003(3)
C1 C1- 0.036(4) 0.069(6) 0.019(4) 0.029(4) -0.001(3) 0.000(4)
C2 C1- 0.047(5) 0.051(5) 0.035(4) 0.022(4) 0.001(4) -0.016(4)
C3 C1- 0.038(4) 0.031(4) 0.057(5) 0.018(3) -0.001(4) -0.012(4)
C4 C1- 0.024(3) 0.027(4) 0.050(5) 0.012(3) -0.004(3) 0.003(3)
C5 C1- 0.025(3) 0.027(4) 0.034(4) 0.004(3) 0.002(3) 0.010(3)
C6 C1- 0.039(4) 0.055(5) 0.032(4) 0.023(4) 0.001(3) -0.004(4)
C7 C1- 0.047(5) 0.071(6) 0.054(5) 0.035(5) 0.007(4) -0.002(5)
C8 C1- 0.057(5) 0.048(5) 0.071(6) 0.037(5) 0.017(5) 0.013(5)
N5 N3- 0.034(3) 0.023(3) 0.025(3) 0.018(2) -0.004(2) -0.003(2)
N6 N3- 0.043(3) 0.030(3) 0.021(3) 0.022(3) -0.009(3) -0.004(2)
N7 N3- 0.034(3) 0.021(3) 0.044(4) 0.012(3) -0.005(3) 0.003(3)
N8 N3- 0.038(3) 0.033(3) 0.028(3) 0.021(3) 0.010(3) 0.010(3)
C9 C1- 0.050(5) 0.057(5) 0.028(4) 0.034(4) 0.007(4) -0.002(4)
C10 C1- 0.058(5) 0.039(4) 0.016(4) 0.023(4) 0.016(3) 0.004(3)
C11 C1- 0.068(6) 0.063(6) 0.024(4) 0.043(5) -0.001(4) -0.013(4)
C12 C1- 0.061(5) 0.036(4) 0.038(4) 0.023(4) -0.023(4) -0.010(4)
C13 C1- 0.057(5) 0.026(4) 0.054(5) 0.016(4) -0.012(4) -0.009(4)
C14 C1- 0.029(4) 0.030(4) 0.086(7) 0.009(3) 0.003(4) 0.015(4)
C15 C1- 0.036(4) 0.053(5) 0.076(7) 0.027(4) 0.021(4) 0.037(5)
C16 C1- 0.048(5) 0.069(6) 0.036(4) 0.042(5) 0.017(4) 0.027(4)
#End of TTdata_251470-ICSD
#
