(C) 2022 by FIZ Karlsruhe - Leibniz Institute for Information Infrastructure.  All rights reserved.
data_161191-ICSD
_database_code_ICSD 161191
_audit_creation_date 2009-02-01
_chemical_name_common 'Aquaerbium hemioxalate (hydrogenphosphate(III)) hydrate'
_chemical_formula_structural '(Er (H2 O) (C2 O4)0.5 (H P O3)) (H2 O)'
_chemical_formula_sum 'C1 H5 Er1 O7 P1'
_chemical_name_structure_type Yb2C2O4(HPO3)2(H2O)4
_exptl_crystal_density_diffrn 3.49
_diffrn_ambient_temperature 293.
_citation_title

;
Luminescent lanthanide oxalatophosphites with a 3D framework structure: (Ln
(H2 O) (C2 O4)0.5 (H P O3)) * (H2 O) (Ln= Pr, Nd and Sm - Lu)
;
loop_
_citation_id
_citation_journal_full
_citation_year
_citation_journal_volume
_citation_page_first
_citation_page_last
_citation_journal_id_ASTM
primary 'Chemistry of Materials' 2008 20 2857 2859 CMATEX
loop_
_citation_author_citation_id
_citation_author_name
primary 'Wang Chihmin'
primary 'Wu Yiying'
primary 'Chang Yuwei'
primary 'Lii Kwanghwa'
_cell_length_a 6.4400(3)
_cell_length_b 6.8326(4)
_cell_length_c 7.6747(5)
_cell_angle_alpha 111.654(4)
_cell_angle_beta 95.757(4)
_cell_angle_gamma 91.096(4)
_cell_volume 311.71
_cell_formula_units_Z 2
_space_group_name_H-M_alt 'P -1'
_space_group_IT_number 2
loop_
_space_group_symop_id
_space_group_symop_operation_xyz
1 '-x, -y, -z'
2 'x, y, z'
loop_
_atom_type_symbol
_atom_type_oxidation_number
Er3+ 3
P3+ 3
H1+ 1
O2- -2
H1+ 1
O2- -2
H1+ 1
C3+ 3
loop_
_atom_site_label
_atom_site_type_symbol
_atom_site_symmetry_multiplicity
_atom_site_Wyckoff_symbol
_atom_site_fract_x
_atom_site_fract_y
_atom_site_fract_z
_atom_site_U_iso_or_equiv
_atom_site_occupancy
Er1 Er3+ 2 i 1.12335(5) 0.21922(6) 0.93160(5) 0.00940(11) 1
P1 P3+ 2 i 0.6698(3) 0.2524(3) 1.0208(3) 0.0109(4) 1
H1 H1+ 2 i 0.6378 0.2796 1.2022 0.013 1
O1 O2- 2 i 0.8021(7) 0.0583(8) 0.9643(7) 0.0115(11) 1
O2 O2- 2 i 0.4663(7) 0.2208(8) 0.8945(7) 0.0149(12) 1
O3 O2- 2 i 0.8185(7) 0.4301(8) 1.0235(7) 0.0133(11) 1
O4 O2- 2 i 0.9491(8) 0.2475(8) 0.6535(7) 0.0204(13) 1
O5 O2- 2 i 1.1464(8) -0.0845(9) 0.6537(8) 0.0199(13) 1
O6 O2- 2 i 1.2036(9) 0.3733(9) 1.2525(7) 0.0245(14) 1
H2 H1+ 2 i 1.273 0.329 1.3363 0.05 1
H3 H1+ 2 i 1.1733 0.5126 1.3428 0.05 1
O7 O2- 2 i 1.4209(10) 0.2103(11) 1.4903(9) 0.0440(19) 1
H4 H1+ 2 i 1.5037 0.2767 1.6224 0.05 1
H5 H1+ 2 i 1.4887 0.0841 1.3984 0.05 1
C1 C3+ 2 i 1.0562(11) -0.0972(12) 0.5007(11) 0.0138(17) 1
loop_
_atom_site_aniso_label
_atom_site_aniso_type_symbol
_atom_site_aniso_U_11
_atom_site_aniso_U_22
_atom_site_aniso_U_33
_atom_site_aniso_U_12
_atom_site_aniso_U_13
_atom_site_aniso_U_23
Er1 Er3+ 0.00683(14) 0.00864(19) 0.0125(2) 0.00088(11) 0.00085(12) 0.00376(15)
P1 P3+ 0.0073(8) 0.0110(11) 0.0164(11) 0.0012(7) 0.0022(7) 0.0070(9)
O1 O2- 0.007(2) 0.010(3) 0.017(3) 0.002(2) 0.003(2) 0.005(2)
O2 O2- 0.007(2) 0.019(3) 0.018(3) -0.005(2) -0.001(2) 0.006(3)
O3 O2- 0.010(2) 0.012(3) 0.017(3) -0.001(2) 0.000(2) 0.005(2)
O4 O2- 0.029(3) 0.016(3) 0.010(3) 0.006(2) -0.003(2) -0.002(3)
O5 O2- 0.027(3) 0.022(3) 0.012(3) 0.009(2) 0.000(2) 0.008(3)
O6 O2- 0.039(3) 0.018(3) 0.012(3) 0.013(3) 0.001(3) 0.001(3)
O7 O2- 0.040(4) 0.068(5) 0.031(4) 0.019(4) 0.006(3) 0.025(4)
C1 C3+ 0.018(4) 0.010(4) 0.016(5) 0.003(3) 0.001(3) 0.009(4)
#End of TTdata_161191-ICSD
#
