(C) 2022 by FIZ Karlsruhe - Leibniz Institute for Information Infrastructure.  All rights reserved.
data_249917-ICSD
_database_code_ICSD 249917
_audit_creation_date 2010-02-01
_chemical_name_common 'Gadolinium aqua hemisquarate hydrogenphosphate(III)'
_chemical_formula_structural 'Gd (H2 O) (C4 O4)0.5 (H P O3)'
_chemical_formula_sum 'C2 H3 Gd1 O6 P1'
_chemical_name_structure_type EuH2O(C4O4).5HPO3
_exptl_crystal_density_diffrn 3.34
_diffrn_ambient_temperature 293.
_citation_title

;
Synthesis of novel organic-inorganic hybrid compounds. Lanthanide phosphites
incorporating a squarate ligand
;
loop_
_citation_id
_citation_journal_full
_citation_year
_citation_journal_volume
_citation_page_first
_citation_page_last
_citation_journal_id_ASTM
primary 'Inorganic Chemistry' 2009 48 6335 6337 INOCAJ
loop_
_citation_author_citation_id
_citation_author_name
primary 'Wang Chihmin'
primary 'Lii Kwanghwa'
_cell_length_a 15.392(3)
_cell_length_b 10.196(2)
_cell_length_c 8.158(2)
_cell_angle_alpha 90.
_cell_angle_beta 104.70(3)
_cell_angle_gamma 90.
_cell_volume 1238.38
_cell_formula_units_Z 8
_space_group_name_H-M_alt 'C 1 2/m 1'
_space_group_IT_number 12
loop_
_space_group_symop_id
_space_group_symop_operation_xyz
1 '-x, y, -z'
2 '-x, -y, -z'
3 'x, -y, z'
4 'x, y, z'
5 '-x+1/2, y+1/2, -z'
6 '-x+1/2, -y+1/2, -z'
7 'x+1/2, -y+1/2, z'
8 'x+1/2, y+1/2, z'
loop_
_atom_type_symbol
_atom_type_oxidation_number
Gd3+ 3
P3+ 3
H1+ 1
P3+ 3
H1+ 1
O2- -2
C2+ 1.5
H1+ 1
loop_
_atom_site_label
_atom_site_type_symbol
_atom_site_symmetry_multiplicity
_atom_site_Wyckoff_symbol
_atom_site_fract_x
_atom_site_fract_y
_atom_site_fract_z
_atom_site_U_iso_or_equiv
_atom_site_occupancy
Gd1 Gd3+ 8 j 0.710119(12) 0.295739(19) 0.74922(2) 0.00964(9) 1
P1 P3+ 4 i 0.81349(10) 0.5 0.52718(18) 0.0113(3) 1
H1 H1+ 4 i 0.905 0.5 0.5829 0.05 1
P2 P3+ 4 i 0.69306(10) 0.5 1.01846(18) 0.0127(3) 1
H2 H1+ 4 i 0.6481 0.5 1.1393 0.05 1
O1 O2- 4 i 0.7691(3) 0.5 0.6765(5) 0.0147(9) 1
O2 O2- 8 j 0.7878(2) 0.6256(3) 0.4276(4) 0.0218(7) 1
O3 O2- 8 j 0.5728(2) 0.2232(3) 0.7887(4) 0.0201(7) 1
O4 O2- 4 i 0.6368(3) 0.5 0.8365(5) 0.0166(9) 1
O5 O2- 8 j 0.74823(19) 0.6258(3) 1.0432(3) 0.0166(6) 1
O6 O2- 8 j 0.86946(19) 0.2681(3) 0.7917(4) 0.0171(6) 1
O7 O2- 8 j 0.59325(19) 0.3611(3) 0.4891(4) 0.0172(6) 1
C1 C2+ 8 j 0.5349(3) 0.2203(4) 0.9055(5) 0.0148(9) 1
C2 C2+ 8 j 0.9401(3) 0.2776(4) 0.9076(5) 0.0124(8) 1
loop_
_atom_site_aniso_label
_atom_site_aniso_type_symbol
_atom_site_aniso_U_11
_atom_site_aniso_U_22
_atom_site_aniso_U_33
_atom_site_aniso_U_12
_atom_site_aniso_U_13
_atom_site_aniso_U_23
Gd1 Gd3+ 0.01039(13) 0.00918(13) 0.00914(12) 0.00028(8) 0.00207(8) -0.00046(8)
P1 P3+ 0.0123(7) 0.0114(8) 0.0102(7) 0. 0.0030(6) 0.
P2 P3+ 0.0198(8) 0.0089(7) 0.0111(7) 0. 0.0071(6) 0.
O1 O2- 0.018(2) 0.014(2) 0.014(2) 0. 0.0087(17) 0.
O2 O2- 0.0260(17) 0.0173(17) 0.0216(17) -0.0024(14) 0.0054(13) 0.0061(13)
O3 O2- 0.0169(16) 0.0296(19) 0.0152(16) -0.0032(13) 0.0069(12) -0.0001(13)
O4 O2- 0.015(2) 0.017(2) 0.017(2) 0. 0.0021(17) 0.
O5 O2- 0.0273(17) 0.0094(14) 0.0120(14) -0.0026(13) 0.0034(12) 0.0000(12)
O6 O2- 0.0108(15) 0.0257(17) 0.0141(15) 0.0000(13) 0.0022(12) -0.0003(13)
O7 O2- 0.0143(15) 0.0206(17) 0.0154(15) 0.0018(13) 0.0017(12) 0.0006(13)
C1 C2+ 0.012(2) 0.015(2) 0.016(2) -0.0015(17) 0.0008(17) 0.0028(17)
C2 C2+ 0.010(2) 0.014(2) 0.013(2) -0.0008(16) 0.0036(16) 0.0002(16)
#End of TTdata_249917-ICSD
#
