(C) 2022 by FIZ Karlsruhe - Leibniz Institute for Information Infrastructure.  All rights reserved.
data_249916-ICSD
_database_code_ICSD 249916
_audit_creation_date 2010-02-01
_audit_update_record 2015-02-01
_chemical_name_common 'Europium aqua hemisquarate hydrogenphosphate(III)'
_chemical_formula_structural 'Eu (H2 O) (C4 O4)0.5 (H P O3)'
_chemical_formula_sum 'C2 H3 Eu1 O6 P1'
_chemical_name_structure_type EuH2O(C4O4).5HPO3
_exptl_crystal_density_diffrn 3.26
_diffrn_ambient_temperature 296.
_citation_title

;
Synthesis of novel organic-inorganic hybrid compounds. Lanthanide phosphites
incorporating a squarate ligand
;
loop_
_citation_id
_citation_journal_full
_citation_year
_citation_journal_volume
_citation_page_first
_citation_page_last
_citation_journal_id_ASTM
primary 'Inorganic Chemistry' 2009 48 6335 6337 INOCAJ
loop_
_citation_author_citation_id
_citation_author_name
primary 'Wang Chihmin'
primary 'Lii Kwanghwa'
_cell_length_a 15.4305(7)
_cell_length_b 10.2242(5)
_cell_length_c 8.1616(4)
_cell_angle_alpha 90.
_cell_angle_beta 104.615(1)
_cell_angle_gamma 90.
_cell_volume 1245.95
_cell_formula_units_Z 8
_space_group_name_H-M_alt 'C 1 2/m 1'
_space_group_IT_number 12
loop_
_space_group_symop_id
_space_group_symop_operation_xyz
1 '-x, y, -z'
2 '-x, -y, -z'
3 'x, -y, z'
4 'x, y, z'
5 '-x+1/2, y+1/2, -z'
6 '-x+1/2, -y+1/2, -z'
7 'x+1/2, -y+1/2, z'
8 'x+1/2, y+1/2, z'
loop_
_atom_type_symbol
_atom_type_oxidation_number
Eu3+ 3
P3+ 3
H1+ 1
P3+ 3
H1+ 1
O2- -2
C2+ 1.5
H1+ 1
loop_
_atom_site_label
_atom_site_type_symbol
_atom_site_symmetry_multiplicity
_atom_site_Wyckoff_symbol
_atom_site_fract_x
_atom_site_fract_y
_atom_site_fract_z
_atom_site_U_iso_or_equiv
_atom_site_occupancy
Eu1 Eu3+ 8 j 0.710399(13) 0.295724(17) 0.74867(2) 0.01063(13) 1
P1 P3+ 4 i 0.81384(9) 0.5 0.52803(15) 0.0121(3) 1
H1 H1+ 4 i 0.905 0.5 0.5829 0.05 1
P2 P3+ 4 i 0.69337(10) 0.5 1.01887(16) 0.0142(3) 1
H2 H1+ 4 i 0.6481 0.5 1.1393 0.05 1
O1 O2- 4 i 0.7704(3) 0.5 0.6777(5) 0.0169(8) 1
O2 O2- 8 j 0.7876(2) 0.6249(3) 0.4291(4) 0.0237(7) 1
O3 O2- 8 j 0.5730(2) 0.2235(3) 0.7886(4) 0.0212(7) 1
O4 O2- 4 i 0.6370(3) 0.5 0.8350(5) 0.0167(8) 1
O5 O2- 8 j 0.7485(2) 0.6246(2) 1.0440(3) 0.0178(6) 1
O6 O2- 8 j 0.8698(2) 0.2676(3) 0.7917(4) 0.0177(6) 1
O7 O2- 8 j 0.59349(19) 0.3609(3) 0.4883(3) 0.0190(6) 1
C1 C2+ 8 j 0.5351(3) 0.2219(4) 0.9050(5) 0.0175(9) 1
C2 C2+ 8 j 0.9404(3) 0.2770(4) 0.9076(5) 0.0156(8) 1
loop_
_atom_site_aniso_label
_atom_site_aniso_type_symbol
_atom_site_aniso_U_11
_atom_site_aniso_U_22
_atom_site_aniso_U_33
_atom_site_aniso_U_12
_atom_site_aniso_U_13
_atom_site_aniso_U_23
Eu1 Eu3+ 0.00995(18) 0.01169(18) 0.00978(17) 0.00018(6) 0.00161(10) -0.00055(5)
P1 P3+ 0.0122(7) 0.0137(7) 0.0112(6) 0. 0.0045(5) 0.
P2 P3+ 0.0199(8) 0.0119(7) 0.0119(6) 0. 0.0062(5) 0.
O1 O2- 0.024(2) 0.016(2) 0.0137(18) 0. 0.0093(16) 0.
O2 O2- 0.0274(18) 0.0201(16) 0.0223(14) -0.0015(12) 0.0037(13) 0.0077(11)
O3 O2- 0.0169(17) 0.0311(17) 0.0164(15) -0.0033(12) 0.0053(13) 0.0018(11)
O4 O2- 0.015(2) 0.019(2) 0.0161(18) 0. 0.0020(15) 0.
O5 O2- 0.0268(17) 0.0114(14) 0.0150(12) -0.0032(11) 0.0046(11) -0.0023(9)
O6 O2- 0.0146(16) 0.0251(15) 0.0125(13) 0.0015(12) 0.0018(11) 0.0004(12)
O7 O2- 0.0163(15) 0.0233(15) 0.0158(13) 0.0026(11) 0.0011(11) -0.0004(11)
C1 C2+ 0.015(2) 0.0189(19) 0.018(2) 0.0000(15) 0.0030(16) -0.0006(14)
C2 C2+ 0.013(2) 0.0175(18) 0.0167(19) 0.0031(14) 0.0045(16) 0.0002(13)
#End of TTdata_249916-ICSD
#
