(C) 2022 by FIZ Karlsruhe - Leibniz Institute for Information Infrastructure.  All rights reserved.
data_759701-ICSD
_database_code_ICSD 759701
_audit_creation_date 2020-02-01
_chemical_name_common 'Lithium phosphorus(V)sulfide 1,2-dimethoxyethane'
_chemical_formula_structural 'Li3 P S4 C4 H10 O2'
_chemical_formula_sum 'C4 H10 Li3 O2 P1 S4'
_exptl_crystal_density_diffrn 1.39
_diffrn_ambient_temperature 298.
_citation_title

;
Li$_4$PS$_4$I: A Li$^+$ superionic conductor synthesized by a solvent-based
soft chemistry approach
;
loop_
_citation_id
_citation_journal_full
_citation_year
_citation_journal_volume
_citation_page_first
_citation_page_last
_citation_journal_id_ASTM
primary 'Chemistry of Materials' 2017 29 1830 1835 CMATEX
loop_
_citation_author_citation_id
_citation_author_name
primary 'Sedlmaier, Stefan J.'
primary 'Indris, Sylvio'
primary 'Dietrich, Christian'
primary 'Yavuz, Murat'
primary 'Dräger, Christoph'
primary 'von Seggern, Falk'
primary 'Sommer, Heino'
primary 'Janek, Jürgen'
_cell_length_a 8.55010(10)
_cell_length_b 8.55010(10)
_cell_length_c 35.4244(6)
_cell_angle_alpha 90.
_cell_angle_beta 90.
_cell_angle_gamma 90.
_cell_volume 2589.67
_cell_formula_units_Z 8
_space_group_name_H-M_alt 'I 41/a m d S'
_space_group_IT_number 141
loop_
_space_group_symop_id
_space_group_symop_operation_xyz
1 'y, -x+1/2, z+1/4'
2 '-y, x+1/2, z+1/4'
3 'y, -x, -z'
4 '-y, x, -z'
5 '-y, -x+1/2, z+1/4'
6 'y, x+1/2, z+1/4'
7 '-y, -x, -z'
8 'y, x, -z'
9 'x, -y+1/2, -z+1/4'
10 '-x, y+1/2, -z+1/4'
11 'x, -y, z'
12 '-x, y, z'
13 '-x, -y+1/2, -z+1/4'
14 'x, y+1/2, -z+1/4'
15 '-x, -y, z'
16 'x, y, z'
17 'y+1/2, -x, z+3/4'
18 '-y+1/2, x, z+3/4'
19 'y+1/2, -x+1/2, -z+1/2'
20 '-y+1/2, x+1/2, -z+1/2'
21 '-y+1/2, -x, z+3/4'
22 'y+1/2, x, z+3/4'
23 '-y+1/2, -x+1/2, -z+1/2'
24 'y+1/2, x+1/2, -z+1/2'
25 'x+1/2, -y, -z+3/4'
26 '-x+1/2, y, -z+3/4'
27 'x+1/2, -y+1/2, z+1/2'
28 '-x+1/2, y+1/2, z+1/2'
29 '-x+1/2, -y, -z+3/4'
30 'x+1/2, y, -z+3/4'
31 '-x+1/2, -y+1/2, z+1/2'
32 'x+1/2, y+1/2, z+1/2'
loop_
_atom_type_symbol
_atom_type_oxidation_number
Li1+ 1
P5+ 5
S2- -2
C0+ 0
O0+ 0
H0+ 0
loop_
_atom_site_label
_atom_site_type_symbol
_atom_site_symmetry_multiplicity
_atom_site_Wyckoff_symbol
_atom_site_fract_x
_atom_site_fract_y
_atom_site_fract_z
_atom_site_B_iso_or_equiv
_atom_site_occupancy
Li1 Li1+ 16 g 0.2323(15) 0.2323(15) 0.5 4.3(5) 1
Li2 Li1+ 8 e 0 0 0.1710(7) 3.9(7) 1
P1 P5+ 8 e 0 0 0.25668(12) 1.5(1) 1
S1 S2- 16 h 0.5 0.6975(3) 0.72225(6) 2.4(1) 1
S2 S2- 16 h 0.6970(3) 0.5 0.78670(7) 2.6(1) 1
C1 C0+ 16 h 0.5938(8) 0.5 0.5908(3) 6.5(4) 1
C2 C0+ 32 i 0.8047(7) 0.4508(14) 0.6339(2) 15.6(6) 0.5
O1 O0+ 16 h 0.6339(7) 0.5 0.6284(2) 6.0(3) 1
#End of TTdata_759701-ICSD
#
