(C) 2022 by FIZ Karlsruhe - Leibniz Institute for Information Infrastructure.  All rights reserved.
data_256908-ICSD
_database_code_ICSD 256908
_audit_creation_date 2019-02-01
_chemical_name_common 'Tribarium decaoxo-dihydroxo-hexaborate carbonate'
_chemical_formula_structural 'Ba3 (B6 O10 (O H)2) (C O3)'
_chemical_formula_sum 'C1 H2 B6 Ba3 O15'
_exptl_crystal_density_diffrn 3.97
_diffrn_ambient_temperature 296.
_citation_title

;
High-temperature, high-pressure hydrothermal synthesis of Ba3[B6O10(OH)2](CO3)
and Ba6[B12O21(OH)2](CO3)2, two barium borate carbonates with 2D layer and 3D
framework structures
;
loop_
_citation_id
_citation_journal_full
_citation_year
_citation_journal_volume
_citation_page_first
_citation_page_last
_citation_journal_id_ASTM
primary 'Inorganic Chemistry' 2018 57 11492 11497 INOCAJ
loop_
_citation_author_citation_id
_citation_author_name
primary 'Liao, Chun-Jui'
primary 'Wen, Yuh-Sheng'
primary 'Lii, Kwang-Hwa'
_cell_length_a 6.5351(4)
_cell_length_b 8.3455(5)
_cell_length_c 11.3489(7)
_cell_angle_alpha 90.
_cell_angle_beta 98.958(2)
_cell_angle_gamma 90.
_cell_volume 611.4
_cell_formula_units_Z 2
_space_group_name_H-M_alt 'P 1 21 1'
_space_group_IT_number 4
loop_
_space_group_symop_id
_space_group_symop_operation_xyz
1 '-x, y+1/2, -z'
2 'x, y, z'
loop_
_atom_type_symbol
_atom_type_oxidation_number
Ba2+ 2
B3+ 3
C4+ 4
O2- -2
H1+ 1
loop_
_atom_site_label
_atom_site_type_symbol
_atom_site_symmetry_multiplicity
_atom_site_Wyckoff_symbol
_atom_site_fract_x
_atom_site_fract_y
_atom_site_fract_z
_atom_site_U_iso_or_equiv
_atom_site_occupancy
Ba1 Ba2+ 2 a 0.96435(3) 0.843974(19) 0.557531(16) 0.00915(5) 1
Ba2 Ba2+ 2 a 0.02518(3) 1.17458(2) 0.936315(16) 0.00961(5) 1
Ba3 Ba2+ 2 a 0.51855(3) 1.00896(6) 0.24806(2) 0.01318(5) 1
B1 B3+ 2 a 0.5243(5) 0.3525(7) 0.0318(3) 0.0073(7) 1
B2 B3+ 2 a 0.4873(6) 0.6235(5) 0.1180(4) 0.0068(8) 1
B3 B3+ 2 a 0.2863(6) 0.3851(5) 0.1832(3) 0.0065(8) 1
B4 B3+ 2 a 0.7188(6) 0.6252(5) 0.3175(4) 0.0075(8) 1
B5 B3+ 2 a 0.5166(6) 0.3845(5) 0.3843(3) 0.0068(8) 1
B6 B3+ 2 a 0.5271(5) 0.1568(6) 0.5335(3) 0.0066(8) 1
C1 C4+ 2 a 0.9967(5) 0.9894(7) 0.2465(3) 0.0128(10) 1
O1 O2- 2 a 0.3878(4) 0.2870(3) 0.0968(2) 0.0093(6) 1
O2 O2- 2 a 0.6117(4) 0.2636(3) 0.9517(2) 0.0086(6) 1
O3 O2- 2 a 0.5749(3) 0.5118(5) 0.03749(19) 0.0092(4) 1
O4 O2- 2 a 0.3285(3) 0.5517(3) 0.1735(2) 0.0062(5) 1
O5 O2- 2 a 0.6633(3) 0.6927(4) 0.20083(19) 0.0069(5) 1
O6 O2- 2 a 0.3452(3) 0.3133(3) 0.3011(2) 0.0084(6) 1
O7 O2- 2 a 0.0579(3) 0.3668(4) 0.1455(2) 0.0097(6) 1
O8 O2- 2 a 0.6780(4) 0.4559(3) 0.3287(2) 0.0062(5) 1
O9 O2- 2 a 0.9485(4) 0.6427(4) 0.3600(2) 0.0121(7) 1
O10 O2- 2 a 0.6140(4) 0.7230(3) 0.4031(2) 0.0083(6) 1
O11 O2- 2 a 0.6175(4) 0.2483(3) 0.4556(2) 0.0087(5) 1
O12 O2- 2 a 0.4271(3) 0.4990(5) 0.46320(19) 0.0086(5) 1
O13 O2- 2 a 1.1433(4) 0.8872(3) 0.2523(3) 0.0258(6) 1
O14 O2- 2 a 0.9011(4) 1.0343(4) 0.1453(2) 0.0334(7) 1
O15 O2- 2 a 0.9385(4) 1.0415(3) 0.3433(2) 0.0215(6) 1
H1 H1+ 2 a 0.9921 0.3014 0.1764 0.05 1
H2 H1+ 2 a 0.0172 0.7059 0.323 0.05 1
loop_
_atom_site_aniso_label
_atom_site_aniso_type_symbol
_atom_site_aniso_U_11
_atom_site_aniso_U_22
_atom_site_aniso_U_33
_atom_site_aniso_U_12
_atom_site_aniso_U_13
_atom_site_aniso_U_23
Ba1 Ba2+ 0.00768(8) 0.00854(10) 0.01100(9) -0.00147(8) 0.00072(7) -0.00180(9)
Ba2 Ba2+ 0.00797(9) 0.01090(11) 0.00988(9) -0.00180(8) 0.00118(7) -0.00142(9)
Ba3 Ba2+ 0.01266(9) 0.00963(7) 0.01733(8) 0.00100(9) 0.00258(7) -0.00114(6)
B1 B3+ 0.0084(15) 0.0065(19) 0.0066(15) 0.0014(18) -0.0003(12) -0.0001(19)
B2 B3+ 0.0083(17) 0.0047(19) 0.0074(17) 0.0008(13) 0.0009(14) -0.0006(13)
B3 B3+ 0.0044(16) 0.009(2) 0.0061(17) -0.0024(12) -0.0003(13) 0.0007(13)
B4 B3+ 0.0055(17) 0.008(2) 0.0093(18) 0.0003(13) 0.0030(14) -0.0018(15)
B5 B3+ 0.0097(17) 0.004(2) 0.0079(16) 0.0014(13) 0.0044(14) 0.0007(13)
B6 B3+ 0.0067(15) 0.009(2) 0.0038(15) -0.0019(16) -0.0012(12) -0.0009(17)
C1 C4+ 0.0141(14) 0.009(3) 0.0161(14) -0.0044(13) 0.0055(12) 0.0007(13)
O1 O2- 0.0112(12) 0.0087(15) 0.0085(12) -0.0018(9) 0.0031(10) -0.0008(10)
O2 O2- 0.0107(12) 0.0055(14) 0.0102(12) -0.0024(9) 0.0035(10) -0.0038(10)
O3 O2- 0.0111(10) 0.0078(12) 0.0101(11) 0.0009(14) 0.0063(8) 0.0023(14)
O4 O2- 0.0059(10) 0.0045(14) 0.0085(11) 0.0006(8) 0.0018(9) 0.0010(9)
O5 O2- 0.0069(9) 0.0066(13) 0.0074(10) -0.0029(10) 0.0021(8) -0.0002(10)
O6 O2- 0.0101(10) 0.0079(16) 0.0065(10) -0.0023(9) -0.0008(8) 0.0015(10)
O7 O2- 0.0038(10) 0.0111(17) 0.0144(11) -0.0022(9) 0.0016(9) 0.0027(11)
O8 O2- 0.0064(10) 0.0063(14) 0.0063(11) -0.0003(8) 0.0016(9) 0.0009(9)
O9 O2- 0.0091(12) 0.0101(19) 0.0168(13) -0.0018(9) 0.0013(10) 0.0023(11)
O10 O2- 0.0119(12) 0.0049(14) 0.0089(12) -0.0008(9) 0.0047(10) -0.0024(10)
O11 O2- 0.0090(12) 0.0100(14) 0.0080(12) 0.0027(9) 0.0037(10) 0.0038(10)
O12 O2- 0.0097(10) 0.0057(13) 0.0116(11) 0.0004(13) 0.0057(8) -0.0035(14)
O13 O2- 0.0178(13) 0.0154(13) 0.0460(17) -0.0005(10) 0.0101(13) -0.0043(12)
O14 O2- 0.0393(16) 0.0377(18) 0.0216(14) -0.0061(15) -0.0001(12) 0.0126(13)
O15 O2- 0.0251(14) 0.0209(15) 0.0197(13) -0.0023(11) 0.0074(11) -0.0093(11)
#End of TTdata_256908-ICSD
#
