(C) 2022 by FIZ Karlsruhe - Leibniz Institute for Information Infrastructure.  All rights reserved.
data_161190-ICSD
_database_code_ICSD 161190
_audit_creation_date 2009-02-01
_audit_update_record 2012-02-01
_chemical_name_common 'Aquaytterbium hemioxalate hydrogenphosphate(III) hydrate'
_chemical_formula_structural 'Yb (H2 O) (C2 O4)0.5 (H P O3) (H2 O)'
_chemical_formula_sum 'C1 H5 O7 P1 Yb1'
_chemical_name_structure_type Yb2C2O4(HPO3)2(H2O)4
_exptl_crystal_density_diffrn 3.59
_diffrn_ambient_temperature 293.
_citation_title

;
Luminescent lanthanide oxalatophosphites with a 3D framework structure: (Ln
(H2 O) (C2 O4)0.5 (H P O3)) * (H2 O) (Ln= Pr, Nd and Sm - Lu)
;
loop_
_citation_id
_citation_journal_full
_citation_year
_citation_journal_volume
_citation_page_first
_citation_page_last
_citation_journal_id_ASTM
primary 'Chemistry of Materials' 2008 20 2857 2859 CMATEX
loop_
_citation_author_citation_id
_citation_author_name
primary 'Wang Chihmin'
primary 'Wu Yiying'
primary 'Chang Yuwei'
primary 'Lii Kwanghwa'
_cell_length_a 6.4075(5)
_cell_length_b 6.8050(7)
_cell_length_c 7.6647(8)
_cell_angle_alpha 111.753(2)
_cell_angle_beta 95.858(2)
_cell_angle_gamma 91.2040(10)
_cell_volume 308.16
_cell_formula_units_Z 2
_space_group_name_H-M_alt 'P -1'
_space_group_IT_number 2
loop_
_space_group_symop_id
_space_group_symop_operation_xyz
1 '-x, -y, -z'
2 'x, y, z'
loop_
_atom_type_symbol
_atom_type_oxidation_number
Yb3+ 3
P3+ 3
H1+ 1
O2- -2
H1+ 1
O2- -2
H1+ 1
C3+ 3
loop_
_atom_site_label
_atom_site_type_symbol
_atom_site_symmetry_multiplicity
_atom_site_Wyckoff_symbol
_atom_site_fract_x
_atom_site_fract_y
_atom_site_fract_z
_atom_site_U_iso_or_equiv
_atom_site_occupancy
Yb1 Yb3+ 2 i 1.12249(4) 0.21853(5) 0.93138(4) 0.00979(11) 1
P1 P3+ 2 i 0.6689(3) 0.2526(3) 1.0207(3) 0.0109(4) 1
H1 H1+ 2 i 0.6378 0.2796 1.2022 0.013 1
O1 O2- 2 i 0.8031(7) 0.0579(8) 0.9647(7) 0.0122(10) 1
O2 O2- 2 i 0.4640(7) 0.2200(8) 0.8932(7) 0.0159(11) 1
O3 O2- 2 i 0.8184(7) 0.4322(8) 1.0243(8) 0.0165(11) 1
O4 O2- 2 i 0.9506(8) 0.2457(8) 0.6549(8) 0.0208(12) 1
O5 O2- 2 i 1.1455(9) -0.0884(9) 0.6553(8) 0.0209(12) 1
O6 O2- 2 i 1.2039(9) 0.3725(9) 1.2506(8) 0.0232(13) 1
H2 H1+ 2 i 1.273 0.329 1.3363 0.05 1
H3 H1+ 2 i 1.1733 0.5126 1.3428 0.05 1
O7 O2- 2 i 1.4159(10) 0.2086(12) 1.4899(10) 0.0422(18) 1
H4 H1+ 2 i 1.5037 0.2767 1.6224 0.05 1
H5 H1+ 2 i 1.4887 0.0841 1.3984 0.05 1
C1 C3+ 2 i 1.0571(10) -0.0982(12) 0.5005(11) 0.0172(16) 1
loop_
_atom_site_aniso_label
_atom_site_aniso_type_symbol
_atom_site_aniso_U_11
_atom_site_aniso_U_22
_atom_site_aniso_U_33
_atom_site_aniso_U_12
_atom_site_aniso_U_13
_atom_site_aniso_U_23
Yb1 Yb3+ 0.01017(14) 0.00753(17) 0.01121(17) 0.00079(10) 0.00015(10) 0.00327(12)
P1 P3+ 0.0102(7) 0.0084(9) 0.0155(10) 0.0014(7) 0.0027(7) 0.0056(8)
O1 O2- 0.015(2) 0.008(2) 0.016(3) 0.0024(19) 0.0031(19) 0.006(2)
O2 O2- 0.007(2) 0.019(3) 0.019(3) 0.004(2) 0.0030(19) 0.005(2)
O3 O2- 0.014(2) 0.011(3) 0.026(3) -0.002(2) 0.000(2) 0.010(2)
O4 O2- 0.035(3) 0.012(3) 0.012(3) 0.010(2) -0.004(2) 0.002(2)
O5 O2- 0.032(3) 0.015(3) 0.013(3) 0.008(2) -0.002(2) 0.003(2)
O6 O2- 0.036(3) 0.019(3) 0.014(3) 0.009(2) -0.005(2) 0.008(3)
O7 O2- 0.043(4) 0.054(5) 0.039(4) 0.017(3) 0.006(3) 0.027(4)
C1 C3+ 0.010(3) 0.018(4) 0.019(4) -0.001(3) 0.003(3) 0.002(3)
#End of TTdata_161190-ICSD
#
