(C) 2022 by FIZ Karlsruhe - Leibniz Institute for Information Infrastructure.  All rights reserved.
data_161192-ICSD
_database_code_ICSD 161192
_audit_creation_date 2009-02-01
_chemical_name_common 'Aquaholmium hemioxalate (hydrogenphosphate(III)) hydrate'
_chemical_formula_structural '(Ho (H2 O) (C2 O4)0.5 (H P O3)) (H2 O)'
_chemical_formula_sum 'C1 H5 Ho1 O7 P1'
_chemical_name_structure_type Yb2C2O4(HPO3)2(H2O)4
_exptl_crystal_density_diffrn 3.43
_diffrn_ambient_temperature 296.
_citation_title

;
Luminescent lanthanide oxalatophosphites with a 3D framework structure: (Ln
(H2 O) (C2 O4)0.5 (H P O3)) * (H2 O) (Ln= Pr, Nd and Sm - Lu)
;
loop_
_citation_id
_citation_journal_full
_citation_year
_citation_journal_volume
_citation_page_first
_citation_page_last
_citation_journal_id_ASTM
primary 'Chemistry of Materials' 2008 20 2857 2859 CMATEX
loop_
_citation_author_citation_id
_citation_author_name
primary 'Wang Chihmin'
primary 'Wu Yiying'
primary 'Chang Yuwei'
primary 'Lii Kwanghwa'
_cell_length_a 6.4628(2)
_cell_length_b 6.8519(2)
_cell_length_c 7.6936(2)
_cell_angle_alpha 111.6460(10)
_cell_angle_beta 95.7790(10)
_cell_angle_gamma 91.0280(10)
_cell_volume 314.5
_cell_formula_units_Z 2
_space_group_name_H-M_alt 'P -1'
_space_group_IT_number 2
loop_
_space_group_symop_id
_space_group_symop_operation_xyz
1 '-x, -y, -z'
2 'x, y, z'
loop_
_atom_type_symbol
_atom_type_oxidation_number
Ho3+ 3
P3+ 3
H1+ 1
O2- -2
H1+ 1
O2- -2
H1+ 1
C3+ 3
loop_
_atom_site_label
_atom_site_type_symbol
_atom_site_symmetry_multiplicity
_atom_site_Wyckoff_symbol
_atom_site_fract_x
_atom_site_fract_y
_atom_site_fract_z
_atom_site_U_iso_or_equiv
_atom_site_occupancy
Ho1 Ho3+ 2 i 1.12385(3) 0.21945(3) 0.93185(3) 0.00903(8) 1
P1 P3+ 2 i 0.67008(17) 0.25235(17) 1.02055(17) 0.0107(2) 1
H1 H1+ 2 i 0.6378 0.2796 1.2022 0.013 1
O1 O2- 2 i 0.8011(4) 0.0582(5) 0.9647(5) 0.0130(6) 1
O2 O2- 2 i 0.4674(5) 0.2222(5) 0.8945(5) 0.0179(7) 1
O3 O2- 2 i 0.8180(5) 0.4299(5) 1.0231(5) 0.0148(7) 1
O4 O2- 2 i 0.9492(6) 0.2464(5) 0.6545(5) 0.0231(8) 1
O5 O2- 2 i 1.1484(5) -0.0856(5) 0.6551(5) 0.0207(7) 1
O6 O2- 2 i 1.2022(6) 0.3736(5) 1.2558(5) 0.0248(8) 1
H2 H1+ 2 i 1.273 0.329 1.3363 0.05 1
H3 H1+ 2 i 1.1733 0.5126 1.3428 0.05 1
O7 O2- 2 i 1.4185(7) 0.2085(8) 1.4899(7) 0.0447(12) 1
H4 H1+ 2 i 1.5037 0.2767 1.6224 0.05 1
H5 H1+ 2 i 1.4887 0.0841 1.3984 0.05 1
C1 C3+ 2 i 1.0577(7) -0.0964(7) 0.5005(7) 0.0150(9) 1
loop_
_atom_site_aniso_label
_atom_site_aniso_type_symbol
_atom_site_aniso_U_11
_atom_site_aniso_U_22
_atom_site_aniso_U_33
_atom_site_aniso_U_12
_atom_site_aniso_U_13
_atom_site_aniso_U_23
Ho1 Ho3+ 0.00744(11) 0.00765(12) 0.01191(13) 0.00089(7) 0.00087(8) 0.00356(9)
P1 P3+ 0.0085(5) 0.0103(5) 0.0141(6) 0.0018(4) 0.0030(4) 0.0052(4)
O1 O2- 0.0092(14) 0.0110(15) 0.0193(18) 0.0014(11) 0.0019(13) 0.0061(13)
O2 O2- 0.0078(14) 0.0188(17) 0.027(2) 0.0023(12) 0.0025(13) 0.0087(15)
O3 O2- 0.0118(15) 0.0120(15) 0.0219(18) 0.0014(12) 0.0028(13) 0.0077(14)
O4 O2- 0.037(2) 0.0149(17) 0.0125(18) 0.0115(14) 0.0006(15) -0.0001(14)
O5 O2- 0.0278(18) 0.0156(17) 0.0148(18) 0.0084(14) -0.0034(15) 0.0022(14)
O6 O2- 0.042(2) 0.0145(17) 0.0144(19) 0.0125(15) -0.0017(16) 0.0026(14)
O7 O2- 0.040(2) 0.060(3) 0.046(3) 0.023(2) 0.008(2) 0.031(2)
C1 C3+ 0.017(2) 0.015(2) 0.014(2) -0.0002(17) 0.0010(18) 0.0070(19)
#End of TTdata_161192-ICSD
#
