(C) 2022 by FIZ Karlsruhe - Leibniz Institute for Information Infrastructure.  All rights reserved.
data_251351-ICSD
_database_code_ICSD 251351
_audit_creation_date 2015-08-01
_chemical_name_common

;
2,4,5-tris(pyridin-4-yl)-1H-imidazole tris(hydrogenphosphate) bis(phosphate)
hydrate-3.5
;
_chemical_formula_structural '(C18 H13 N5) Zn5 (H P O4)3 (P O4)2 (H2 O)3.5'
_chemical_formula_sum 'C18 H23 N5 O23.5 P5 Zn5'
_exptl_crystal_density_diffrn 2.22
_diffrn_ambient_temperature 296.
_citation_title 'Organic-inorganic hybrid zinc phosphate with 28-ring channels'
loop_
_citation_id
_citation_journal_full
_citation_year
_citation_journal_volume
_citation_page_first
_citation_page_last
_citation_journal_id_ASTM
primary 'Chemistry - A European Journal' 2015 21 1878 1881 CEUJED
loop_
_citation_author_citation_id
_citation_author_name
primary 'Wang, Chih-Min'
primary 'Lee, Li-Wei'
primary 'Chang, Tsung-Yuan'
primary 'Chen, Yen-Chieh'
primary 'Lin, Hsiu-Mei'
primary 'Lu, Kuang-Lieh'
primary 'Lii, Kwang-Hwa'
_cell_length_a 5.1242(2)
_cell_length_b 25.0641(14)
_cell_length_c 27.1877(15)
_cell_angle_alpha 90.
_cell_angle_beta 90.940(2)
_cell_angle_gamma 90.
_cell_volume 3491.34
_cell_formula_units_Z 4
_space_group_name_H-M_alt 'P 1 21/n 1'
_space_group_IT_number 14
loop_
_space_group_symop_id
_space_group_symop_operation_xyz
1 '-x+1/2, y+1/2, -z+1/2'
2 '-x, -y, -z'
3 'x+1/2, -y+1/2, z+1/2'
4 'x, y, z'
loop_
_atom_type_symbol
_atom_type_oxidation_number
Zn0+ 0
P0+ 0
O0+ 0
H0+ 0
O0+ 0
H0+ 0
O0+ 0
N0+ 0
H0+ 0
N0+ 0
H0+ 0
N0+ 0
H0+ 0
C0+ 0
H0+ 0
C0+ 0
H0+ 0
C0+ 0
H0+ 0
C0+ 0
H0+ 0
C0+ 0
H0+ 0
C0+ 0
H0+ 0
C0+ 0
H0+ 0
C0+ 0
H0+ 0
C0+ 0
H0+ 0
C0+ 0
H0+ 0
C0+ 0
H0+ 0
C0+ 0
H0+ 0
O0+ 0
H0+ 0
loop_
_atom_site_label
_atom_site_type_symbol
_atom_site_symmetry_multiplicity
_atom_site_Wyckoff_symbol
_atom_site_fract_x
_atom_site_fract_y
_atom_site_fract_z
_atom_site_U_iso_or_equiv
_atom_site_occupancy
Zn1 Zn0+ 4 e -0.59637(14) 1.28725(3) 0.36119(3) 0.01530(18) 1
Zn2 Zn0+ 4 e -0.10290(12) 1.10867(3) 0.37489(2) 0.00835(16) 1
Zn3 Zn0+ 4 e 0.26554(12) 1.06007(3) 0.28323(3) 0.00900(16) 1
Zn4 Zn0+ 4 e -0.17221(13) 0.96038(3) 0.21156(3) 0.01213(17) 1
Zn5 Zn0+ 4 e -0.26681(12) 1.00086(3) 0.43441(2) 0.00776(16) 1
P1 P0+ 4 e -0.6084(3) 1.16511(6) 0.34126(6) 0.0091(3) 1
P2 P0+ 4 e -0.6968(3) 1.01981(7) 0.17576(6) 0.0128(3) 1
P3 P0+ 4 e -0.4182(3) 0.85701(7) 0.16108(6) 0.0144(3) 1
P4 P0+ 4 e -0.2108(3) 1.00071(6) 0.32035(6) 0.0080(3) 1
P5 P0+ 4 e -0.2132(3) 0.93658(6) 0.53235(6) 0.0077(3) 1
O1 O0+ 4 e -0.4989(8) 1.22043(16) 0.33139(16) 0.0123(9) 1
O2 O0+ 4 e -0.5884(8) 1.13206(16) 0.29357(15) 0.0117(9) 1
O3 O0+ 4 e -0.4492(7) 1.13641(17) 0.38256(15) 0.0111(9) 1
O4 O0+ 4 e -0.8910(7) 1.16812(16) 0.35783(15) 0.0113(9) 1
O5 O0+ 4 e -0.8069(8) 1.05720(17) 0.21401(16) 0.0151(9) 1
O6 O0+ 4 e -0.7361(10) 1.0467(2) 0.12375(17) 0.0284(12) 1
H1 H0+ 4 e -0.7979 1.0707 0.1096 0.05 1
O7 O0+ 4 e -0.8446(8) 0.96652(17) 0.17479(16) 0.0161(10) 1
O8 O0+ 4 e -0.4043(8) 1.01209(18) 0.18117(19) 0.0218(11) 1
O9 O0+ 4 e -0.5672(9) 0.89680(18) 0.12550(17) 0.0196(10) 1
H2 H0+ 4 e -0.5192 0.9169 0.0983 0.05 1
O10 O0+ 4 e -0.2042(9) 0.83325(19) 0.13000(17) 0.0220(11) 1
O11 O0+ 4 e -0.6120(9) 0.81499(19) 0.17841(17) 0.0212(10) 1
O12 O0+ 4 e -0.3131(8) 0.88768(18) 0.20539(17) 0.0186(10) 1
O13 O0+ 4 e -0.0843(8) 0.96677(17) 0.28088(15) 0.0122(9) 1
O14 O0+ 4 e -0.1648(7) 0.97331(16) 0.37056(15) 0.0098(8) 1
O15 O0+ 4 e -0.0652(7) 1.05642(16) 0.32112(15) 0.0091(8) 1
O16 O0+ 4 e -0.4995(7) 1.00890(16) 0.31201(15) 0.0116(9) 1
O17 O0+ 4 e -0.1448(7) 0.94658(16) 0.47932(15) 0.0093(8) 1
O18 O0+ 4 e -0.3523(8) 0.88050(16) 0.53427(15) 0.0110(9) 1
O19 O0+ 4 e 0.0473(7) 0.93166(16) 0.56298(14) 0.0089(8) 1
O20 O0+ 4 e -0.3780(8) 0.97958(16) 0.55552(15) 0.0110(9) 1
N1 N0+ 4 e -0.7073(11) 1.2756(2) 0.4321(2) 0.0223(13) 1
N2 N0+ 4 e -1.1067(11) 1.2798(2) 0.5979(2) 0.0214(13) 1
N3 N0+ 4 e -0.9910(9) 1.22424(19) 0.65836(18) 0.0090(10) 1
H3 H0+ 4 e -0.9917 1.2051 0.6823 0.05 1
N4 N0+ 4 e -1.7289(9) 1.3318(2) 0.7327(2) 0.0145(11) 1
H4 H0+ 4 e -1.8461 1.3456 0.7541 0.05 1
N5 N0+ 4 e -0.2540(10) 1.0938(2) 0.6257(2) 0.0171(12) 1
H5 H0+ 4 e -0.1382 1.0713 0.622 0.05 1
C1 C0+ 4 e -0.9148(17) 1.2468(3) 0.4439(3) 0.036(2) 1
H6 H0+ 4 e -1.0211 1.2339 0.4185 0.043 1
C2 C0+ 4 e -0.9805(18) 1.2351(4) 0.4911(3) 0.043(2) 1
H7 H0+ 4 e -1.1239 1.2135 0.4972 0.052 1
C3 C0+ 4 e -0.8348(14) 1.2553(3) 0.5295(3) 0.0235(16) 1
C4 C0+ 4 e -0.6229(19) 1.2857(5) 0.5187(3) 0.063(3) 1
H8 H0+ 4 e -0.5181 1.2998 0.5437 0.075 1
C5 C0+ 4 e -0.5647(18) 1.2954(5) 0.4693(3) 0.058(3) 1
H9 H0+ 4 e -0.421 1.3166 0.4622 0.07 1
C6 C0+ 4 e -0.9153(12) 1.2467(3) 0.5810(2) 0.0190(14) 1
C7 C0+ 4 e -1.1476(11) 1.2651(2) 0.6443(2) 0.0132(13) 1
C8 C0+ 4 e -0.8364(11) 1.2118(3) 0.6190(2) 0.0130(13) 1
C9 C0+ 4 e -1.3462(11) 1.2889(2) 0.6756(2) 0.0110(12) 1
C10 C0+ 4 e -1.5031(12) 1.3311(3) 0.6576(3) 0.0196(15) 1
H10 H0+ 4 e -1.4791 1.3446 0.6261 0.023 1
C11 C0+ 4 e -1.6905(12) 1.3519(3) 0.6872(3) 0.0202(15) 1
H11 H0+ 4 e -1.7928 1.3802 0.6759 0.024 1
C12 C0+ 4 e -1.5809(12) 1.2922(3) 0.7506(2) 0.0192(15) 1
H12 H0+ 4 e -1.6103 1.2796 0.7823 0.023 1
C13 C0+ 4 e -1.3860(12) 1.2694(3) 0.7234(2) 0.0180(14) 1
H13 H0+ 4 e -1.2835 1.242 0.7362 0.022 1
C14 C0+ 4 e -0.6380(11) 1.1706(2) 0.6209(2) 0.0118(12) 1
C15 C0+ 4 e -0.5633(11) 1.1471(2) 0.6655(2) 0.0147(13) 1
H14 H0+ 4 e -0.6456 1.1571 0.6943 0.018 1
C16 C0+ 4 e -0.3686(12) 1.1091(2) 0.6672(2) 0.0144(13) 1
H15 H0+ 4 e -0.3171 1.0942 0.6972 0.017 1
C17 C0+ 4 e -0.3249(12) 1.1139(3) 0.5821(3) 0.0196(15) 1
H16 H0+ 4 e -0.2437 1.102 0.5538 0.023 1
C18 C0+ 4 e -0.5171(12) 1.1523(2) 0.5785(2) 0.0165(14) 1
H17 H0+ 4 e -0.566 1.1659 0.5478 0.02 1
O21 O0+ 4 e -1.0446(12) 1.1679(3) 0.7449(2) 0.0441(15) 1
O22 O0+ 4 e -1.197(5) 1.0613(13) 0.0878(10) 0.088(7) 0.50(2)
O23 O0+ 4 e -1.194(5) 1.0254(14) 0.0816(10) 0.088(7) 0.50(2)
O24 O0+ 4 e -0.171(4) 0.9272(8) 0.0484(6) 0.103(7) 0.5
O25 O0+ 4 e -0.321(7) 1.0779(18) -0.0106(12) 0.099(9) 0.25
O26 O0+ 4 e -1.375(7) 0.9095(19) 0.0276(13) 0.099(9) 0.25
O27 O0+ 4 e -0.630(6) 1.1249(10) 0.0472(12) 0.170(12) 0.5
loop_
_atom_site_aniso_label
_atom_site_aniso_type_symbol
_atom_site_aniso_U_11
_atom_site_aniso_U_22
_atom_site_aniso_U_33
_atom_site_aniso_U_12
_atom_site_aniso_U_13
_atom_site_aniso_U_23
Zn1 Zn0+ 0.0137(4) 0.0153(4) 0.0170(4) 0.0005(3) 0.0027(3) 0.0019(3)
Zn2 Zn0+ 0.0050(3) 0.0104(3) 0.0098(4) 0.0007(2) 0.0018(3) 0.0012(3)
Zn3 Zn0+ 0.0059(3) 0.0107(3) 0.0104(3) 0.0000(3) 0.0016(3) 0.0006(3)
Zn4 Zn0+ 0.0084(3) 0.0165(4) 0.0116(4) -0.0008(3) 0.0007(3) -0.0028(3)
Zn5 Zn0+ 0.0050(3) 0.0103(3) 0.0080(3) 0.0007(2) 0.0010(3) 0.0007(3)
P1 P0+ 0.0057(7) 0.0094(7) 0.0122(8) 0.0006(6) 0.0020(6) 0.0019(6)
P2 P0+ 0.0112(7) 0.0154(8) 0.0119(8) 0.0013(6) 0.0009(6) 0.0000(6)
P3 P0+ 0.0118(8) 0.0158(8) 0.0155(9) -0.0012(6) 0.0011(7) -0.0029(7)
P4 P0+ 0.0056(7) 0.0098(7) 0.0088(7) 0.0001(5) 0.0015(6) 0.0006(6)
P5 P0+ 0.0053(7) 0.0102(7) 0.0077(7) 0.0001(6) 0.0003(6) 0.0004(6)
O1 O0+ 0.011(2) 0.010(2) 0.016(2) -0.0024(16) 0.0037(18) -0.0006(17)
O2 O0+ 0.011(2) 0.011(2) 0.013(2) -0.0028(16) 0.0044(17) 0.0021(17)
O3 O0+ 0.0041(19) 0.017(2) 0.012(2) 0.0014(16) 0.0017(16) 0.0056(17)
O4 O0+ 0.0055(19) 0.013(2) 0.015(2) 0.0012(16) -0.0003(17) 0.0046(17)
O5 O0+ 0.013(2) 0.016(2) 0.016(2) 0.0030(17) -0.0013(18) -0.0009(18)
O6 O0+ 0.040(3) 0.031(3) 0.013(2) 0.015(2) 0.009(2) 0.006(2)
O7 O0+ 0.009(2) 0.021(2) 0.018(2) -0.0019(18) 0.0068(18) -0.0057(19)
O8 O0+ 0.010(2) 0.019(2) 0.036(3) -0.0005(18) 0.006(2) 0.006(2)
O9 O0+ 0.019(2) 0.023(3) 0.017(2) 0.0038(19) 0.000(2) 0.003(2)
O10 O0+ 0.020(2) 0.026(3) 0.020(3) 0.006(2) 0.002(2) -0.001(2)
O11 O0+ 0.021(2) 0.023(3) 0.019(2) -0.009(2) -0.001(2) 0.001(2)
O12 O0+ 0.016(2) 0.018(2) 0.021(3) -0.0017(18) -0.0044(19) -0.004(2)
O13 O0+ 0.010(2) 0.015(2) 0.013(2) -0.0004(16) 0.0013(17) -0.0023(17)
O14 O0+ 0.0083(19) 0.011(2) 0.010(2) 0.0029(16) 0.0020(17) -0.0015(16)
O15 O0+ 0.0052(18) 0.011(2) 0.011(2) -0.0042(16) 0.0027(16) -0.0009(17)
O16 O0+ 0.0069(19) 0.012(2) 0.016(2) -0.0003(16) -0.0009(17) 0.0022(17)
O17 O0+ 0.0083(19) 0.012(2) 0.008(2) 0.0003(16) -0.0007(16) 0.0013(16)
O18 O0+ 0.0090(19) 0.013(2) 0.011(2) -0.0051(16) 0.0010(17) -0.0027(17)
O19 O0+ 0.0064(19) 0.012(2) 0.009(2) 0.0027(16) 0.0012(16) 0.0008(16)
O20 O0+ 0.010(2) 0.012(2) 0.012(2) 0.0022(16) 0.0036(17) 0.0001(17)
N1 N0+ 0.024(3) 0.025(3) 0.018(3) 0.001(2) 0.001(3) 0.001(3)
N2 N0+ 0.018(3) 0.030(3) 0.016(3) 0.004(2) 0.004(2) 0.002(2)
N3 N0+ 0.009(2) 0.011(3) 0.008(2) 0.0013(19) 0.000(2) 0.000(2)
N4 N0+ 0.009(2) 0.016(3) 0.018(3) -0.001(2) 0.006(2) -0.007(2)
N5 N0+ 0.010(2) 0.012(3) 0.030(3) 0.000(2) -0.002(2) -0.005(2)
C1 C0+ 0.049(5) 0.034(5) 0.026(4) -0.014(4) 0.010(4) -0.004(4)
C2 C0+ 0.056(6) 0.047(6) 0.027(5) -0.033(5) 0.003(4) -0.002(4)
C3 C0+ 0.026(4) 0.024(4) 0.021(4) 0.008(3) 0.008(3) 0.004(3)
C4 C0+ 0.051(6) 0.120(10) 0.017(4) -0.048(6) -0.003(4) 0.003(5)
C5 C0+ 0.039(5) 0.109(9) 0.027(5) -0.038(6) 0.005(4) 0.005(5)
C6 C0+ 0.015(3) 0.029(4) 0.013(3) 0.002(3) 0.002(3) -0.002(3)
C7 C0+ 0.009(3) 0.017(3) 0.013(3) 0.003(2) 0.003(2) 0.002(3)
C8 C0+ 0.009(3) 0.021(3) 0.009(3) 0.003(2) 0.000(2) 0.001(3)
C9 C0+ 0.008(3) 0.013(3) 0.013(3) 0.001(2) -0.004(2) -0.004(2)
C10 C0+ 0.016(3) 0.021(4) 0.022(4) -0.001(3) 0.008(3) 0.001(3)
C11 C0+ 0.016(3) 0.020(4) 0.026(4) 0.006(3) 0.007(3) 0.000(3)
C12 C0+ 0.011(3) 0.033(4) 0.014(3) -0.004(3) 0.001(3) -0.008(3)
C13 C0+ 0.016(3) 0.027(4) 0.011(3) -0.002(3) -0.003(3) 0.000(3)
C14 C0+ 0.009(3) 0.015(3) 0.012(3) -0.001(2) 0.003(2) -0.005(2)
C15 C0+ 0.007(3) 0.016(3) 0.022(4) 0.001(2) -0.001(3) -0.004(3)
C16 C0+ 0.013(3) 0.013(3) 0.017(3) -0.003(2) -0.004(3) 0.001(3)
C17 C0+ 0.013(3) 0.022(4) 0.023(4) 0.004(3) 0.003(3) -0.007(3)
C18 C0+ 0.015(3) 0.013(3) 0.022(4) 0.006(3) 0.002(3) -0.001(3)
O21 O0+ 0.049(4) 0.046(4) 0.038(3) 0.003(3) 0.003(3) 0.004(3)
O22 O0+ 0.055(6) 0.14(2) 0.069(9) -0.038(14) 0.003(6) -0.007(15)
O23 O0+ 0.055(6) 0.14(2) 0.069(9) -0.038(14) 0.003(6) -0.007(15)
O24 O0+ 0.124(16) 0.132(17) 0.054(11) -0.048(14) 0.032(11) 0.026(11)
O25 O0+ 0.067(15) 0.17(3) 0.063(16) -0.027(17) -0.014(13) 0.030(17)
O26 O0+ 0.067(15) 0.17(3) 0.063(16) -0.027(17) -0.014(13) 0.030(17)
O27 O0+ 0.17(2) 0.091(18) 0.25(3) -0.041(17) 0.05(2) 0.00(2)
#End of TTdata_251351-ICSD
#
