(C) 2022 by FIZ Karlsruhe - Leibniz Institute for Information Infrastructure.  All rights reserved.
data_240353-ICSD
_database_code_ICSD 240353
_audit_creation_date 2007-04-01
_chemical_name_common 'Disodium triiron tris(oxalate) bis(methylphosphonate)'
_chemical_formula_structural 'Na2 Fe3 (C2 O4)3 (C H3  P O3 H)2'
_chemical_formula_sum 'C8 H8 Fe3 Na2 O18 P2'
_chemical_name_structure_type Na2Mn3(C2O4)3(CH3PO3H)2
_exptl_crystal_density_diffrn 2.5
_citation_title

;
Ionothermal Synthesis of Metal Oxalatophosphonates with a Three-Dimensional
Framework Structure: Na2M3(C2O4)3(CH3PO3H)2 (M = FeII and MnII)
;
loop_
_citation_id
_citation_journal_full
_citation_year
_citation_journal_volume
_citation_page_first
_citation_page_last
_citation_journal_id_ASTM
primary 'Inorganic Chemistry' 2006 45 6361 6364 INOCAJ
loop_
_citation_author_citation_id
_citation_author_name
primary 'Tsao, C.-P.'
primary 'Sheu, C.-Y.'
primary 'Nguyen, N.'
primary 'Lii, K.-H.'
_cell_length_a 5.80630(10)
_cell_length_b 10.3867(3)
_cell_length_c 14.8094(4)
_cell_angle_alpha 90.
_cell_angle_beta 96.9260(10)
_cell_angle_gamma 90.
_cell_volume 886.61
_cell_formula_units_Z 2
_space_group_name_H-M_alt 'P 1 21/n 1'
_space_group_IT_number 14
loop_
_space_group_symop_id
_space_group_symop_operation_xyz
1 '-x+1/2, y+1/2, -z+1/2'
2 '-x, -y, -z'
3 'x+1/2, -y+1/2, z+1/2'
4 'x, y, z'
loop_
_atom_type_symbol
_atom_type_oxidation_number
Na1+ 1
Fe2+ 2
P5+ 5
O2- -2
H1+ 1
O2- -2
C3+ 2.75
H1- -1
loop_
_atom_site_label
_atom_site_type_symbol
_atom_site_symmetry_multiplicity
_atom_site_Wyckoff_symbol
_atom_site_fract_x
_atom_site_fract_y
_atom_site_fract_z
_atom_site_U_iso_or_equiv
_atom_site_occupancy
Na1 Na1+ 4 e -0.12332(8) 0.74997(4) 0.17337(3) 0.01596(9) 1
Fe1 Fe2+ 4 e 0.40815(2) 0.556407(13) 0.243049(10) 0.01027(4) 1
Fe2 Fe2+ 2 c 0.5 0. 0.5 0.01119(4) 1
P1 P5+ 4 e 0.57676(5) 0.68713(3) 0.45317(2) 0.01468(6) 1
O1 O2- 4 e 0.50948(16) 0.82561(8) 0.43978(6) 0.01943(16) 1
O2 O2- 4 e 0.44805(15) 0.59064(8) 0.38851(6) 0.01783(15) 1
O3 O2- 4 e 0.5297(2) 0.64944(10) 0.55281(6) 0.0312(2) 1
H1 H1+ 4 e 0.558(4) 0.572(2) 0.5706(16) 0.05 1
O4 O2- 4 e 0.29677(12) 0.36127(7) 0.25489(6) 0.01416(14) 1
O5 O2- 4 e -0.01401(13) 0.24278(7) 0.27524(6) 0.01549(15) 1
O6 O2- 4 e -0.27238(13) 0.45779(8) 0.26306(6) 0.01738(16) 1
O7 O2- 4 e 0.04358(13) 0.57194(7) 0.24084(6) 0.01472(14) 1
O8 O2- 4 e 0.72083(13) 0.56886(8) 0.07523(6) 0.01560(14) 1
O9 O2- 4 e 0.34538(13) 0.53861(8) 0.09098(5) 0.01464(14) 1
C1 C3+ 4 e 0.8831(3) 0.67054(17) 0.44856(13) 0.0384(4) 1
C2 C3+ 4 e 0.08703(16) 0.34656(9) 0.26165(7) 0.01027(15) 1
C3 C3+ 4 e -0.06233(16) 0.46981(9) 0.25420(7) 0.01096(15) 1
C4 C3+ 4 e 0.52063(17) 0.53099(10) 0.04789(7) 0.01108(16) 1
loop_
_atom_site_aniso_label
_atom_site_aniso_type_symbol
_atom_site_aniso_U_11
_atom_site_aniso_U_22
_atom_site_aniso_U_33
_atom_site_aniso_U_12
_atom_site_aniso_U_13
_atom_site_aniso_U_23
Na1 Na1+ 0.0140(2) 0.01313(19) 0.0209(2) 0.00052(14) 0.00256(17) 0.00090(16)
Fe1 Fe2+ 0.00875(6) 0.00867(6) 0.01344(7) -0.00082(4) 0.00155(5) -0.00019(4)
Fe2 Fe2+ 0.01047(8) 0.01002(8) 0.01338(9) 0.00029(6) 0.00271(7) -0.00051(6)
P1 P5+ 0.01976(13) 0.01093(11) 0.01295(12) 0.00193(9) 0.00031(10) -0.00209(9)
O1 O2- 0.0260(4) 0.0115(3) 0.0203(4) 0.0030(3) 0.0007(3) -0.0022(3)
O2 O2- 0.0256(4) 0.0140(3) 0.0137(3) -0.0019(3) 0.0016(3) -0.0028(3)
O3 O2- 0.0641(7) 0.0169(4) 0.0133(4) 0.0016(4) 0.0067(4) -0.0004(3)
O4 O2- 0.0083(3) 0.0123(3) 0.0219(4) 0.0006(2) 0.0020(3) 0.0011(3)
O5 O2- 0.0148(3) 0.0079(3) 0.0249(4) 0.0000(2) 0.0069(3) 0.0015(3)
O6 O2- 0.0082(3) 0.0149(3) 0.0297(4) 0.0017(2) 0.0054(3) 0.0042(3)
O7 O2- 0.0115(3) 0.0096(3) 0.0231(4) -0.0004(2) 0.0021(3) 0.0022(3)
O8 O2- 0.0108(3) 0.0208(4) 0.0151(3) -0.0018(2) 0.0011(3) -0.0045(3)
O9 O2- 0.0122(3) 0.0196(3) 0.0126(3) -0.0016(2) 0.0039(3) -0.0032(3)
C1 C3+ 0.0199(6) 0.0367(8) 0.0567(11) 0.0078(5) -0.0027(6) -0.0156(8)
C2 C3+ 0.0093(3) 0.0090(3) 0.0124(4) 0.0005(3) 0.0010(3) 0.0001(3)
C3 C3+ 0.0092(3) 0.0099(3) 0.0137(4) 0.0002(3) 0.0015(3) 0.0002(3)
C4 C3+ 0.0100(4) 0.0123(4) 0.0110(4) -0.0002(3) 0.0017(3) -0.0005(3)
#End of TTdata_240353-ICSD
#
