(C) 2022 by FIZ Karlsruhe - Leibniz Institute for Information Infrastructure.  All rights reserved.
data_161194-ICSD
_database_code_ICSD 161194
_audit_creation_date 2009-02-01
_chemical_name_common
'Aquaeuropium hemioxalate (hydrogenphosphate(III)) hydrate'
_chemical_formula_structural '(Eu (H2 O) (C2 O4)0.5 (H P O3)) (H2 O)'
_chemical_formula_sum 'C1 H5 Eu1 O7 P1'
_chemical_name_structure_type Yb2C2O4(HPO3)2(H2O)4
_exptl_crystal_density_diffrn 3.17
_diffrn_ambient_temperature 296.
_citation_title

;
Luminescent lanthanide oxalatophosphites with a 3D framework structure: (Ln
(H2 O) (C2 O4)0.5 (H P O3)) * (H2 O) (Ln= Pr, Nd and Sm - Lu)
;
loop_
_citation_id
_citation_journal_full
_citation_year
_citation_journal_volume
_citation_page_first
_citation_page_last
_citation_journal_id_ASTM
primary 'Chemistry of Materials' 2008 20 2857 2859 CMATEX
loop_
_citation_author_citation_id
_citation_author_name
primary 'Wang Chihmin'
primary 'Wu Yiying'
primary 'Chang Yuwei'
primary 'Lii Kwanghwa'
_cell_length_a 6.5619(2)
_cell_length_b 6.9442(3)
_cell_length_c 7.7412(4)
_cell_angle_alpha 111.369(3)
_cell_angle_beta 95.495(2)
_cell_angle_gamma 90.824(2)
_cell_volume 326.52
_cell_formula_units_Z 2
_space_group_name_H-M_alt 'P -1'
_space_group_IT_number 2
loop_
_space_group_symop_id
_space_group_symop_operation_xyz
1 '-x, -y, -z'
2 'x, y, z'
loop_
_atom_type_symbol
_atom_type_oxidation_number
Eu3+ 3
P3+ 3
H1+ 1
O2- -2
H1+ 1
O2- -2
H1+ 1
C3+ 3
loop_
_atom_site_label
_atom_site_type_symbol
_atom_site_symmetry_multiplicity
_atom_site_Wyckoff_symbol
_atom_site_fract_x
_atom_site_fract_y
_atom_site_fract_z
_atom_site_U_iso_or_equiv
_atom_site_occupancy
Eu1 Eu3+ 2 i 1.12702(4) 0.22108(4) 0.93265(4) 0.00909(8) 1
P1 P3+ 2 i 0.67172(19) 0.2518(2) 1.0204(2) 0.0108(3) 1
H1 H1+ 2 i 0.6378 0.2796 1.2022 0.013 1
O1 O2- 2 i 0.8011(5) 0.0593(5) 0.9652(5) 0.0135(8) 1
O2 O2- 2 i 0.4743(5) 0.2254(5) 0.8962(5) 0.0164(8) 1
O3 O2- 2 i 0.8182(5) 0.4278(5) 1.0254(5) 0.0130(8) 1
O4 O2- 2 i 0.9481(6) 0.2435(5) 0.6513(5) 0.0225(9) 1
O5 O2- 2 i 1.1545(5) -0.0807(5) 0.6527(5) 0.0214(9) 1
O6 O2- 2 i 1.2043(6) 0.3773(6) 1.2628(5) 0.0262(10) 1
H2 H1+ 2 i 1.273 0.329 1.3363 0.05 1
H3 H1+ 2 i 1.1733 0.5126 1.3428 0.05 1
O7 O2- 2 i 1.4237(7) 0.2129(7) 1.4923(6) 0.0455(13) 1
H4 H1+ 2 i 1.5037 0.2767 1.6224 0.05 1
H5 H1+ 2 i 1.4887 0.0841 1.3984 0.05 1
C1 C3+ 2 i 1.0590(7) -0.0946(8) 0.5015(8) 0.0132(11) 1
loop_
_atom_site_aniso_label
_atom_site_aniso_type_symbol
_atom_site_aniso_U_11
_atom_site_aniso_U_22
_atom_site_aniso_U_33
_atom_site_aniso_U_12
_atom_site_aniso_U_13
_atom_site_aniso_U_23
Eu1 Eu3+ 0.00764(12) 0.00745(14) 0.01201(15) 0.00095(8) 0.00041(9) 0.00352(11)
P1 P3+ 0.0085(6) 0.0099(7) 0.0158(8) 0.0025(5) 0.0026(5) 0.0066(6)
O1 O2- 0.0124(17) 0.0084(18) 0.022(2) 0.0018(13) 0.0053(15) 0.0071(17)
O2 O2- 0.0057(17) 0.021(2) 0.025(2) 0.0007(14) 0.0009(15) 0.0107(18)
O3 O2- 0.0096(17) 0.0074(18) 0.023(2) -0.0001(13) 0.0028(15) 0.0068(16)
O4 O2- 0.037(2) 0.014(2) 0.013(2) 0.0113(17) 0.0005(17) 0.0008(18)
O5 O2- 0.030(2) 0.018(2) 0.013(2) 0.0111(16) -0.0056(17) 0.0044(18)
O6 O2- 0.039(2) 0.017(2) 0.018(2) 0.0128(17) -0.0025(18) 0.0030(19)
O7 O2- 0.051(3) 0.061(3) 0.035(3) 0.021(2) 0.007(2) 0.029(3)
C1 C3+ 0.013(2) 0.012(3) 0.015(3) 0.005(2) 0.001(2) 0.005(2)
#End of TTdata_161194-ICSD
#
