(C) 2022 by FIZ Karlsruhe - Leibniz Institute for Information Infrastructure.  All rights reserved.
data_161195-ICSD
_database_code_ICSD 161195
_audit_creation_date 2009-02-01
_chemical_name_common
'Aquaneodymium hemioxalate (hydrogenphosphate(III)) hydrate'
_chemical_formula_structural '(Nd (H2 O) (C2 O4)0.5 (H P O3)) (H2 O)'
_chemical_formula_sum 'C1 H5 Nd1 O7 P1'
_chemical_name_structure_type Yb2C2O4(HPO3)2(H2O)4
_exptl_crystal_density_diffrn 2.98
_diffrn_ambient_temperature 296.
_citation_title

;
Luminescent lanthanide oxalatophosphites with a 3D framework structure: (Ln
(H2 O) (C2 O4)0.5 (H P O3)) * (H2 O) (Ln= Pr, Nd and Sm - Lu)
;
loop_
_citation_id
_citation_journal_full
_citation_year
_citation_journal_volume
_citation_page_first
_citation_page_last
_citation_journal_id_ASTM
primary 'Chemistry of Materials' 2008 20 2857 2859 CMATEX
loop_
_citation_author_citation_id
_citation_author_name
primary 'Wang Chihmin'
primary 'Wu Yiying'
primary 'Chang Yuwei'
primary 'Lii Kwanghwa'
_cell_length_a 6.6544(2)
_cell_length_b 7.0380(2)
_cell_length_c 7.7938(3)
_cell_angle_alpha 111.160(2)
_cell_angle_beta 95.307(2)
_cell_angle_gamma 90.590(2)
_cell_volume 338.57
_cell_formula_units_Z 2
_space_group_name_H-M_alt 'P -1'
_space_group_IT_number 2
loop_
_space_group_symop_id
_space_group_symop_operation_xyz
1 '-x, -y, -z'
2 'x, y, z'
loop_
_atom_type_symbol
_atom_type_oxidation_number
Nd3+ 3
P3+ 3
H1+ 1
O2- -2
H1+ 1
O2- -2
H1+ 1
C3+ 3
loop_
_atom_site_label
_atom_site_type_symbol
_atom_site_symmetry_multiplicity
_atom_site_Wyckoff_symbol
_atom_site_fract_x
_atom_site_fract_y
_atom_site_fract_z
_atom_site_U_iso_or_equiv
_atom_site_occupancy
Nd1 Nd3+ 2 i 1.13017(3) 0.22235(3) 0.93348(3) 0.01119(10) 1
P1 P3+ 2 i 0.67407(16) 0.25210(17) 1.02081(16) 0.0133(2) 1
H1 H1+ 2 i 0.6378 0.2796 1.2022 0.013 1
O1 O2- 2 i 0.8008(4) 0.0610(5) 0.9653(5) 0.0172(6) 1
O2 O2- 2 i 0.4783(5) 0.2276(5) 0.8980(5) 0.0219(7) 1
O3 O2- 2 i 0.8185(4) 0.4269(5) 1.0271(4) 0.0174(7) 1
O4 O2- 2 i 0.9472(6) 0.2409(5) 0.6489(5) 0.0270(8) 1
O5 O2- 2 i 1.1590(6) -0.0778(5) 0.6495(5) 0.0263(8) 1
O6 O2- 2 i 1.2042(7) 0.3791(6) 1.2704(5) 0.0331(9) 1
H2 H1+ 2 i 1.273 0.329 1.3363 0.05 1
H3 H1+ 2 i 1.1733 0.5126 1.3428 0.05 1
O7 O2- 2 i 1.4295(7) 0.2169(9) 1.4955(7) 0.0553(14) 1
H4 H1+ 2 i 1.5037 0.2767 1.6224 0.05 1
H5 H1+ 2 i 1.4887 0.0841 1.3984 0.05 1
C1 C3+ 2 i 1.0620(7) -0.0921(7) 0.5001(6) 0.0178(9) 1
loop_
_atom_site_aniso_label
_atom_site_aniso_type_symbol
_atom_site_aniso_U_11
_atom_site_aniso_U_22
_atom_site_aniso_U_33
_atom_site_aniso_U_12
_atom_site_aniso_U_13
_atom_site_aniso_U_23
Nd1 Nd3+ 0.00943(14) 0.00947(14) 0.01456(15) 0.00103(8) 0.00065(9) 0.00436(9)
P1 P3+ 0.0095(5) 0.0127(5) 0.0194(6) 0.0016(4) 0.0029(4) 0.0076(4)
O1 O2- 0.0131(15) 0.0137(15) 0.0275(18) 0.0043(11) 0.0042(13) 0.0103(13)
O2 O2- 0.0115(15) 0.0210(18) 0.034(2) 0.0001(12) 0.0006(14) 0.0112(15)
O3 O2- 0.0112(15) 0.0132(15) 0.0279(18) 0.0009(11) 0.0066(13) 0.0066(13)
O4 O2- 0.040(2) 0.0166(17) 0.0187(17) 0.0128(15) -0.0050(15) 0.0013(14)
O5 O2- 0.035(2) 0.0199(18) 0.0191(17) 0.0132(15) -0.0038(15) 0.0029(14)
O6 O2- 0.054(3) 0.0222(19) 0.0171(18) 0.0166(17) -0.0050(16) 0.0018(14)
O7 O2- 0.053(3) 0.077(4) 0.049(3) 0.032(3) 0.012(2) 0.037(3)
C1 C3+ 0.021(2) 0.014(2) 0.016(2) 0.0012(17) -0.0007(17) 0.0037(17)
#End of TTdata_161195-ICSD
#
