(C) 2022 by FIZ Karlsruhe - Leibniz Institute for Information Infrastructure.  All rights reserved.
data_161196-ICSD
_database_code_ICSD 161196
_audit_creation_date 2009-02-01
_chemical_name_common
'Aquapraseodymium hemioxalate (hydrogenphosphate(III)) hydrate'
_chemical_formula_structural '(Pr (H2 O) (C2 O4)0.5 (H P O3)) (H2 O)'
_chemical_formula_sum 'C1 H5 O7 P1 Pr1'
_chemical_name_structure_type Yb2C2O4(HPO3)2(H2O)4
_exptl_crystal_density_diffrn 2.92
_diffrn_ambient_temperature 296.
_citation_title

;
Luminescent lanthanide oxalatophosphites with a 3D framework structure: (Ln
(H2 O) (C2 O4)0.5 (H P O3)) * (H2 O) (Ln= Pr, Nd and Sm - Lu)
;
loop_
_citation_id
_citation_journal_full
_citation_year
_citation_journal_volume
_citation_page_first
_citation_page_last
_citation_journal_id_ASTM
primary 'Chemistry of Materials' 2008 20 2857 2859 CMATEX
loop_
_citation_author_citation_id
_citation_author_name
primary 'Wang Chihmin'
primary 'Wu Yiying'
primary 'Chang Yuwei'
primary 'Lii Kwanghwa'
_cell_length_a 6.6764(3)
_cell_length_b 7.0684(3)
_cell_length_c 7.8103(3)
_cell_angle_alpha 111.141(2)
_cell_angle_beta 95.415(2)
_cell_angle_gamma 90.457(2)
_cell_volume 341.89
_cell_formula_units_Z 2
_space_group_name_H-M_alt 'P -1'
_space_group_IT_number 2
loop_
_space_group_symop_id
_space_group_symop_operation_xyz
1 '-x, -y, -z'
2 'x, y, z'
loop_
_atom_type_symbol
_atom_type_oxidation_number
Pr3+ 3
P3+ 3
H1+ 1
O2- -2
H1+ 1
O2- -2
H1+ 1
C3+ 3
loop_
_atom_site_label
_atom_site_type_symbol
_atom_site_symmetry_multiplicity
_atom_site_Wyckoff_symbol
_atom_site_fract_x
_atom_site_fract_y
_atom_site_fract_z
_atom_site_U_iso_or_equiv
_atom_site_occupancy
Pr1 Pr3+ 2 i 1.13180(2) 0.22279(3) 0.93407(3) 0.01220(8) 1
P1 P3+ 2 i 0.67498(12) 0.25254(15) 1.02073(14) 0.0145(2) 1
H1 H1+ 2 i 0.6378 0.2796 1.2022 0.013 1
O1 O2- 2 i 0.8015(3) 0.0626(4) 0.9659(4) 0.0164(6) 1
O2 O2- 2 i 0.4802(3) 0.2281(4) 0.8987(4) 0.0223(6) 1
O3 O2- 2 i 0.8168(3) 0.4253(4) 1.0250(4) 0.0177(6) 1
O4 O2- 2 i 0.9478(4) 0.2401(4) 0.6478(4) 0.0275(7) 1
O5 O2- 2 i 1.1603(4) -0.0760(4) 0.6491(4) 0.0263(7) 1
O6 O2- 2 i 1.2053(5) 0.3809(5) 1.2723(4) 0.0347(8) 1
H2 H1+ 2 i 1.273 0.329 1.3363 0.05 1
H3 H1+ 2 i 1.1733 0.5126 1.3428 0.05 1
O7 O2- 2 i 1.4300(5) 0.2175(7) 1.4962(5) 0.0597(11) 1
H4 H1+ 2 i 1.5497 0.1509 1.4249 0.05 1
H5 H1+ 2 i 1.4656 0.2788 1.6357 0.05 1
C1 C3+ 2 i 1.0610(5) -0.0917(6) 0.5006(6) 0.0188(8) 1
loop_
_atom_site_aniso_label
_atom_site_aniso_type_symbol
_atom_site_aniso_U_11
_atom_site_aniso_U_22
_atom_site_aniso_U_33
_atom_site_aniso_U_12
_atom_site_aniso_U_13
_atom_site_aniso_U_23
Pr1 Pr3+ 0.00888(9) 0.01052(13) 0.01697(13) 0.00072(7) 0.00022(7) 0.00497(9)
P1 P3+ 0.0091(4) 0.0135(5) 0.0224(6) 0.0019(3) 0.0033(4) 0.0080(5)
O1 O2- 0.0125(11) 0.0114(14) 0.0275(16) 0.0021(10) 0.0030(10) 0.0095(13)
O2 O2- 0.0097(11) 0.0222(16) 0.0341(17) 0.0007(10) -0.0007(11) 0.0097(14)
O3 O2- 0.0148(11) 0.0112(14) 0.0267(16) -0.0012(10) 0.0025(11) 0.0063(13)
O4 O2- 0.0392(16) 0.0195(17) 0.0188(16) 0.0143(13) -0.0035(12) 0.0022(14)
O5 O2- 0.0343(15) 0.0211(17) 0.0191(16) 0.0120(13) -0.0052(12) 0.0039(13)
O6 O2- 0.0532(19) 0.0279(19) 0.0188(16) 0.0153(15) -0.0047(14) 0.0051(15)
O7 O2- 0.053(2) 0.087(3) 0.054(3) 0.032(2) 0.0149(19) 0.041(2)
C1 C3+ 0.0198(17) 0.018(2) 0.020(2) 0.0040(16) -0.0017(15) 0.0089(19)
#End of TTdata_161196-ICSD
#
