(C) 2022 by FIZ Karlsruhe - Leibniz Institute for Information Infrastructure.  All rights reserved.
data_171354-ICSD
_database_code_ICSD 171354
_audit_creation_date 2006-10-01
_chemical_name_common 'Uranium(IV) fluoride oxalate hydrate'
_chemical_formula_structural 'U F3 (C2 O4)0.5 (H2 O)'
_chemical_formula_sum 'C1 H2 F3 O3 U1'
_exptl_crystal_density_diffrn 5.28
_diffrn_ambient_temperature 100.
_citation_title

;
U F3 (H2 O) (C2 O4)0.5: A fluorooxalate of tetravalent uranium with a
three-dimensional framework structure
;
loop_
_citation_id
_citation_journal_full
_citation_year
_citation_journal_volume
_citation_page_first
_citation_page_last
_citation_journal_id_ASTM
primary 'Inorganic Chemistry' 2006 45 1436 1438 INOCAJ
loop_
_citation_author_citation_id
_citation_author_name
primary 'Wang, C.-M.'
primary 'Liao, C.-H.'
primary 'Chen, P.-L.'
primary 'Lii, K.-H.'
_cell_length_a 17.246(3)
_cell_length_b 6.0882(12)
_cell_length_c 8.5892(17)
_cell_angle_alpha 90.
_cell_angle_beta 95.42(3)
_cell_angle_gamma 90.
_cell_volume 897.81
_cell_formula_units_Z 8
_space_group_name_H-M_alt 'C 1 2/c 1'
_space_group_IT_number 15
loop_
_space_group_symop_id
_space_group_symop_operation_xyz
1 'x, -y, z+1/2'
2 '-x, -y, -z'
3 '-x, y, -z+1/2'
4 'x, y, z'
5 'x+1/2, -y+1/2, z+1/2'
6 '-x+1/2, -y+1/2, -z'
7 '-x+1/2, y+1/2, -z+1/2'
8 'x+1/2, y+1/2, z'
loop_
_atom_type_symbol
_atom_type_oxidation_number
U4+ 4
F1- -1
O2- -2
C3+ 3
O2- -2
H1+ 1
loop_
_atom_site_label
_atom_site_type_symbol
_atom_site_symmetry_multiplicity
_atom_site_Wyckoff_symbol
_atom_site_fract_x
_atom_site_fract_y
_atom_site_fract_z
_atom_site_U_iso_or_equiv
_atom_site_occupancy
U1 U4+ 8 f 0.172503(11) 0.11495(3) 0.63218(2) 0.00376(11) 1
F1 F1- 8 f 0.23358(19) -0.2034(5) 0.7093(4) 0.0073(7) 1
F2 F1- 8 f 0.2028(2) 0.4066(4) 0.4793(4) 0.0072(7) 1
F3 F1- 8 f 0.15480(19) -0.0466(5) 0.3896(3) 0.0075(6) 1
O1 O2- 8 f 0.0516(2) 0.2455(6) 0.4872(5) 0.0084(8) 1
O2 O2- 8 f 0.0658(2) -0.1466(6) 0.6304(5) 0.0091(9) 1
C1 C3+ 8 f -0.0045(4) 0.1133(8) 0.4584(7) 0.0087(12) 1
O3 O2- 8 f 0.1058(3) 0.4205(6) 0.7505(5) 0.0094(9) 1
H1 H1+ 8 f 0.0834 0.5135 0.6969 0.05 1
H2 H1+ 8 f 0.133 0.4709 0.8239 0.05 1
loop_
_atom_site_aniso_label
_atom_site_aniso_type_symbol
_atom_site_aniso_U_11
_atom_site_aniso_U_22
_atom_site_aniso_U_33
_atom_site_aniso_U_12
_atom_site_aniso_U_13
_atom_site_aniso_U_23
U1 U4+ 0.00199(14) 0.00475(15) 0.00436(15) -0.00017(7) -0.00060(9) 0.00012(7)
F1 F1- 0.0053(17) 0.0077(15) 0.0090(16) 0.0001(12) 0.0020(13) 0.0020(12)
F2 F1- 0.0064(17) 0.0080(16) 0.0073(17) 0.0009(12) 0.0006(14) 0.0003(11)
F3 F1- 0.0061(16) 0.0098(14) 0.0069(16) 0.0019(13) 0.0016(13) -0.0011(12)
O1 O2- 0.005(2) 0.0065(18) 0.014(2) -0.0018(15) -0.0015(17) -0.0001(15)
O2 O2- 0.006(2) 0.0104(19) 0.011(2) -0.0001(15) 0.0011(17) 0.0037(15)
C1 C3+ 0.007(3) 0.010(3) 0.009(3) 0.003(2) 0.002(2) -0.002(2)
O3 O2- 0.008(2) 0.0113(19) 0.008(2) 0.0032(16) -0.0031(18) 0.0005(15)
#End of TTdata_171354-ICSD
#
